#------------------------------------------------------------------------------
#$Date: 2020-04-10 08:35:10 +0300 (Fri, 10 Apr 2020) $
#$Revision: 250652 $
#$URL: file:///home/coder/svn-repositories/cod/cif/2/02/20/2022073.cif $
#------------------------------------------------------------------------------
#
# This file is available in the Crystallography Open Database (COD),
# http://www.crystallography.net/. The original data for this entry
# were provided by IUCr Journals, http://journals.iucr.org/.
#
# The file may be used within the scientific community so long as
# proper attribution is given to the journal article from which the
# data were obtained.
#
data_2022073
loop_
_publ_author_name
'Jha, Kunal Kumar'
'Gruza, Barbara'
'Kumar, Prashant'
'Chodkiewicz, Michal Leszek'
'Dominiak, Paulina Maria'
_publ_section_title
;
 TAAM: a reliable and user friendly tool for hydrogen-atom location using
 routine X-ray diffraction data
;
_journal_issue                   3
_journal_name_full
'Acta Crystallographica Section B Structural Science, Crystal Engineering and Materials'
_journal_paper_doi               10.1107/S2052520620002917
_journal_volume                  76
_journal_year                    2020
_chemical_absolute_configuration unk
_chemical_formula_moiety         'C1.25 H3 O'
_chemical_formula_sum            'C1.25 H3 O'
_chemical_formula_weight         34.04
_space_group_crystal_system      tetragonal
_space_group_IT_number           82
_space_group_name_Hall           'I -4'
_space_group_name_H-M_alt        'I -4'
_symmetry_Int_Tables_number      82
_audit_creation_date             2019-09-27
_audit_creation_method
;
Olex2 1.2
(compiled 2018.05.29 svn.r3508 for OlexSys, GUI svn.r5506)
;
_cell_angle_alpha                90
_cell_angle_beta                 90
_cell_angle_gamma                90
_cell_formula_units_Z            8
_cell_length_a                   6.08670(10)
_cell_length_b                   6.08670(10)
_cell_length_c                   8.4958(4)
_cell_measurement_temperature    15.0(10)
_cell_volume                     314.752(17)
_computing_molecular_graphics    'Olex2 (Dolomanov et al., 2009)'
_computing_publication_material  'Olex2 (Dolomanov et al., 2009)'
_computing_structure_refinement  'olex2.refine (Bourhis et al., 2015)'
_diffrn_ambient_temperature      15.0(10)
_diffrn_measured_fraction_theta_full 0.9878
_diffrn_measured_fraction_theta_max 0.9878
_diffrn_measurement_device_type  'Rigaku R-axis Rapid diffractometer'
_diffrn_radiation_type           MoK\a
_diffrn_radiation_wavelength     0.71073
_diffrn_reflns_av_R_equivalents  0.0000
_diffrn_reflns_av_unetI/netI     0.0106
_diffrn_reflns_limit_h_max       15
_diffrn_reflns_limit_h_min       0
_diffrn_reflns_limit_k_max       15
_diffrn_reflns_limit_k_min       0
_diffrn_reflns_limit_l_max       21
_diffrn_reflns_limit_l_min       -21
_diffrn_reflns_number            2378
_diffrn_reflns_theta_full        26.4523
_diffrn_reflns_theta_max         26.45
_diffrn_reflns_theta_min         4.12
_exptl_absorpt_coefficient_mu    0.124
_exptl_crystal_density_diffrn    1.4364
_exptl_crystal_F_000             148.1134
_refine_diff_density_max         0.1635
_refine_diff_density_min         -0.0661
_refine_diff_density_rms         0.0218
_refine_ls_abs_structure_details
'Flack, H. D. (1983). Acta Cryst. A39, 876-881.'
_refine_ls_abs_structure_Flack   0.1(4)
_refine_ls_d_res_high            0.7978
_refine_ls_d_res_low             4.9479
_refine_ls_goodness_of_fit_ref   1.5258
_refine_ls_hydrogen_treatment    refall
_refine_ls_matrix_type           full
_refine_ls_number_constraints    0
_refine_ls_number_parameters     48
_refine_ls_number_reflns         325
_refine_ls_number_restraints     0
_refine_ls_restrained_S_all      1.5258
_refine_ls_R_factor_all          0.0106
_refine_ls_R_factor_gt           0.0106
_refine_ls_shift/su_max          0.0001
_refine_ls_shift/su_mean         0.0000
_refine_ls_structure_factor_coef Fsqd
_refine_ls_weighting_details
'w=1/[\s^2^(Fo^2^)+(0.0185P)^2^] where P=(Fo^2^+2Fc^2^)/3'
_refine_ls_weighting_scheme      calc
_refine_ls_wR_factor_gt          0.0286
_refine_ls_wR_factor_ref         0.0286
_reflns_Friedel_coverage         1.000
_reflns_limit_h_max              7
_reflns_limit_h_min              -7
_reflns_limit_k_max              7
_reflns_limit_k_min              -7
_reflns_limit_l_max              10
_reflns_limit_l_min              -10
_reflns_number_gt                325
_reflns_number_total             325
_reflns_threshold_expression     I>=2u(I)
_iucr_refine_instructions_details
;
TITL pentaerythritol
CELL 0.71073 6.0867 6.0867 8.4958 90 90 90
ZERR 8 0 0 0 0 0 0
LATT -2
SYMM +Y,-X,-Z
SYMM -X,-Y,+Z
SYMM -Y,+X,-Z
SFAC C H O
UNIT 10 24 8

L.S. 10
PLAN  20
acta 
BOND $H
OMIT -10 53
WGHT 0.018537 0
FVAR 0.991002
REM <olex2.extras>
REM <HklSrc "%.\\73f06e53a51f8c84f736c8378e0fb1e7.hkl">
REM </olex2.extras>

O1    3    -0.31964 -0.24565  0.01872  11.00000  0.00525  0.00622  0.01170 =
 0.00003  0.00033 -0.00112 
C1    1    -0.16023 -0.12528  0.10684  11.00000  0.00633  0.00526  0.00631 =
 0.00062  0.00102 -0.00053 
C5    1     0.00000  0.00000  0.00000  10.25000  0.00425  0.00425  0.00481 =
 0.00000  0.00000  0.00000 
H1    2    -0.26651 -0.38969  0.00143  11.00000  0.02255  0.00680  0.03331 =
 0.00138 -0.00471 -0.00556 
H1a   2    -0.24590 -0.01188  0.17923  11.00000  0.02440  0.01848  0.01963 =
 0.00817  0.00285 -0.01779 
H1b   2    -0.06616 -0.23467  0.18473  11.00000  0.02376  0.02906  0.02209 =
 0.00589  0.00232 -0.01204 
HKLF 4

END
Q2 1 0 -0.5 -0.037037 11 0.05 0.08
Q3 1 0 0 0.296296 11 0.05 0.04
Q4 1 -0.1 0.1 0.111111 11 0.05 0.04
Q5 1 -0.15 -0.45 0.092593 11 0.05 0.03
Q6 1 -0.1 -0.2 0.185185 11 0.05 0.03
Q7 1 -0.3 -0.5 -0.148148 11 0.05 0.03
Q8 1 -0.15 -0.4 -0.12963 11 0.05 0.03
Q9 1 -0.45 -0.4 -0.055556 11 0.05 0.02
Q10 1 -0.25 -0.05 0.203704 11 0.05 0.02
Q11 1 -0.5 0 0.25 11 0.05 0.01
Q12 1 -0.25 -0.25 0.277778 11 0.05 0
Q13 1 0 -0.5 0.25 11 0.05 -0

  REM The information below was added by Olex2.
  REM
  REM R1 = 0.0106 for 325 Fo > 4sig(Fo) and 0.0106 for all 325 data
  REM 48 parameters refined using 0 restraints
  REM Highest difference peak 0.1635, deepest hole -0.0661
  REM Mean Shift 0.0000, Max Shift 0.0001.

  REM +++ Tabular Listing of Refinement Information +++
  REM R1_all = 0.0106
  REM R1_gt = 0.0106
  REM wR_ref = 0.0286
  REM GOOF = 1.5258
  REM Shift_max = 0.0001
  REM Shift_mean = 0.0000
  REM Reflections_all = 325
  REM Reflections_gt = 325
  REM Parameters = 48
  REM Hole = -0.0661
  REM Peak = 0.1635
  REM Flack = 0.1(4)

  
;
_cod_data_source_file            71_TAAM_ANIS_0.8.cif
_cod_data_source_block           71_TAAM_ANIS_0.8
_cod_original_cell_volume        314.75(2)
_cod_original_sg_symbol_Hall     ' I -4'
_cod_database_code               2022073
_olex2_refinement_description
;
;
_iucr_refine_fcf_details
;
data_pentaerythritol
_computing_structure_refinement   'olex2.refine (Bourhis et al., 2015)'
_shelx_refln_list_code            4
loop_
  _space_group_symop_id
  _space_group_symop_operation_xyz
  1  x,y,z
  2  y,-x,-z
  3  -y,x,-z
  4  -x,-y,z
  5  x+1/2,y+1/2,z+1/2
  6  y+1/2,-x+1/2,-z+1/2
  7  -y+1/2,x+1/2,-z+1/2
  8  -x+1/2,-y+1/2,z+1/2

_space_group_crystal_system       tetragonal
_space_group_IT_number            82
_space_group_name_H-M_alt         'I -4'
_space_group_name_Hall            ' I -4'
_symmetry_space_group_name_H-M    'I -4'
_symmetry_space_group_name_Hall   ' I -4'
_symmetry_Int_Tables_number       82
_cell_length_a                    6.0867
_cell_length_b                    6.0867
_cell_length_c                    8.4958
_cell_angle_alpha                 90
_cell_angle_beta                  90
_cell_angle_gamma                 90
_cell_volume                      314.751692
loop_
  _refln_index_h
  _refln_index_k
  _refln_index_l
  _refln_F_squared_calc
  _refln_F_squared_meas
  _refln_F_squared_sigma
  _refln_F_squared_weight
  _refln_observed_status
-7 -2 -3 115.934 115.642 0.855 1.216 o
-7 -2 -1 1.814 1.721 0.081 840.769 o
-7 -1 -4 42.635 42.064 0.316 9.041 o
-7 -1 -2 88.050 87.447 0.641 2.121 o
-6 -4 -2 186.515 186.715 1.364 0.470 o
-6 -3 -5 9.078 8.787 0.102 170.595 o
-6 -3 -3 32.928 32.665 0.244 15.099 o
-6 -3 -1 133.532 133.084 0.978 0.919 o
-6 -2 -4 13.161 12.932 0.112 91.030 o
-6 -2 -2 16.707 16.434 0.132 57.809 o
-6 -1 -5 87.744 88.465 0.662 2.097 o
-6 -1 -3 202.796 201.897 1.476 0.399 o
-6 -1 -1 195.242 199.127 1.446 0.423 o
-5 -5 -4 14.309 14.479 0.132 73.470 o
-5 -5 -2 29.769 30.506 0.234 17.829 o
-5 -4 -5 23.499 23.644 0.193 28.502 o
-5 -4 -3 125.035 125.956 0.916 1.042 o
-5 -4 -1 84.367 85.766 0.631 2.263 o
-5 -3 -6 14.550 14.673 0.132 71.650 o
-5 -3 -4 50.678 50.932 0.377 6.324 o
-5 -3 -2 2.869 2.882 0.051 1196.890 o
-5 -2 -7 9.958 9.907 0.122 132.897 o
-5 -2 -5 23.964 22.004 0.173 29.985 o
-5 -2 -3 152.600 149.885 1.090 0.714 o
-5 -2 -1 100.025 101.885 0.743 1.611 o
-5 -1 -6 203.425 201.693 1.476 0.398 o
-5 -1 -4 211.434 209.188 1.517 0.370 o
-5 -1 -2 381.690 374.601 2.709 0.114 o
-4 -6 -2 43.345 44.853 0.336 8.399 o
-4 -5 -5 18.410 19.316 0.163 44.241 o
-4 -5 -3 60.428 59.211 0.438 4.545 o
-4 -5 -1 142.881 144.071 1.049 0.797 o
-4 -4 -6 11.053 10.681 0.102 126.380 o
-4 -4 -4 48.430 47.633 0.356 7.031 o
-4 -4 -2 1.357 1.395 0.041 2820.350 o
-4 -3 -7 127.087 126.761 0.947 1.009 o
-4 -3 -5 26.090 26.474 0.193 23.745 o
-4 -3 -3 229.342 231.324 1.680 0.309 o
-4 -3 -1 1340.850 1368.920 9.928 0.009 o
-4 -2 -8 32.425 32.075 0.255 15.343 o
-4 -2 -6 13.489 13.125 0.112 87.859 o
-4 -2 -4 56.993 53.274 0.387 5.335 o
-4 -2 -2 39.792 38.164 0.285 10.640 o
-4 -1 -7 60.199 61.960 0.458 4.391 o
-4 -1 -5 43.475 43.041 0.316 8.724 o
-4 -1 -3 186.671 182.601 1.324 0.479 o
-4 -1 -1 409.546 411.227 2.973 0.098 o
-3 -6 -5 42.991 42.542 0.326 8.818 o
-3 -6 -3 3.166 2.739 0.061 945.209 o
-3 -6 -1 23.083 23.420 0.183 29.740 o
-3 -5 -6 136.242 138.196 1.018 0.869 o
-3 -5 -4 111.155 111.772 0.815 1.319 o
-3 -5 -2 213.830 210.389 1.517 0.364 o
-3 -4 -7 19.000 18.267 0.153 45.054 o
-3 -4 -5 43.815 41.880 0.316 8.780 o
-3 -4 -3 162.685 156.575 1.130 0.640 o
-3 -4 -1 150.333 146.983 1.059 0.741 o
-3 -3 -8 44.493 44.813 0.346 8.088 o
-3 -3 -6 15.145 15.253 0.122 69.030 o
-3 -3 -4 65.191 67.611 0.489 3.744 o
-3 -3 -2 22.847 24.458 0.183 29.335 o
-3 -2 -9 94.715 94.635 0.703 1.818 o
-3 -2 -7 12.517 13.084 0.102 98.680 o
-3 -2 -5 114.635 120.214 0.866 1.200 o
-3 -2 -3 282.473 299.943 2.159 0.196 o
-3 -2 -1 100.628 101.957 0.743 1.599 o
-3 -1 -8 106.600 107.394 0.794 1.426 o
-3 -1 -6 143.477 139.245 1.018 0.815 o
-3 -1 -4 21.025 20.039 0.153 38.103 o
-3 -1 -2 59.288 60.158 0.438 4.603 o
-2 -7 -3 18.374 18.624 0.163 45.245 o
-2 -7 -1 10.296 10.101 0.102 140.217 o
-2 -6 -4 65.677 64.088 0.479 3.850 o
-2 -6 -2 91.621 91.275 0.672 1.952 o
-2 -5 -7 179.568 181.888 1.334 0.502 o
-2 -5 -5 132.718 137.738 1.008 0.900 o
-2 -5 -3 317.445 316.632 2.301 0.163 o
-2 -5 -1 328.375 331.712 2.393 0.151 o
-2 -4 -8 93.366 94.350 0.703 1.851 o
-2 -4 -6 106.855 111.284 0.804 1.388 o
-2 -4 -4 1.040 1.069 0.020 8192.020 o
-2 -4 -2 37.413 37.156 0.275 11.720 o
-2 -3 -9 10.537 10.579 0.102 133.632 o
-2 -3 -7 46.182 45.220 0.336 7.775 o
-2 -3 -5 96.599 91.072 0.662 1.844 o
-2 -3 -3 247.009 242.616 1.751 0.273 o
-2 -3 -1 614.145 596.415 4.297 0.045 o
-2 -2 -8 145.711 144.030 1.069 0.775 o
-2 -2 -6 223.676 221.019 1.599 0.331 o
-2 -2 -4 519.583 540.656 3.890 0.059 o
-2 -2 -2 1484.640 1517.690 10.926 0.007 o
-2 -1 -9 56.159 56.166 0.428 5.129 o
-2 -1 -7 276.350 272.726 1.975 0.217 o
-2 -1 -5 339.428 331.662 2.393 0.145 o
-2 -1 -3 1327.290 1354.940 9.755 0.009 o
-2 -1 -1 1479.470 1506.120 10.844 0.007 o
-1 -7 -4 22.223 21.699 0.183 32.384 o
-1 -7 -2 331.650 333.647 2.434 0.148 o
-1 -6 -5 40.680 41.402 0.316 9.625 o
-1 -6 -3 16.761 17.045 0.143 55.086 o
-1 -6 -1 55.727 53.224 0.387 5.482 o
-1 -5 -6 39.815 39.477 0.295 10.332 o
-1 -5 -4 55.190 53.580 0.387 5.524 o
-1 -5 -2 157.833 154.630 1.120 0.670 o
-1 -4 -7 131.616 136.628 0.988 0.918 o
-1 -4 -5 407.577 419.444 3.034 0.096 o
-1 -4 -3 218.520 215.694 1.558 0.348 o
-1 -4 -1 16.039 16.170 0.122 62.589 o
-1 -3 -8 57.724 57.195 0.417 4.951 o
-1 -3 -6 295.008 298.477 2.159 0.187 o
-1 -3 -4 602.899 602.677 4.348 0.045 o
-1 -3 -2 141.803 139.285 1.008 0.828 o
-1 -2 -9 63.973 64.567 0.479 3.952 o
-1 -2 -7 222.672 220.714 1.599 0.333 o
-1 -2 -5 154.338 147.940 1.069 0.714 o
-1 -2 -3 45.488 47.908 0.346 7.588 o
-1 -2 -1 142.363 141.281 1.018 0.816 o
-1 -1 -10 168.165 166.045 1.232 0.583 o
-1 -1 -8 63.164 62.164 0.458 4.148 o
-1 -1 -6 44.020 45.688 0.336 8.166 o
-1 -1 -4 353.246 363.482 2.617 0.129 o
-1 -1 -2 1141.040 1151.160 8.278 0.013 o
0 -7 -3 2.001 2.210 0.071 991.464 o
0 -7 -1 56.657 57.469 0.428 5.011 o
0 -6 -6 13.782 13.543 0.122 81.781 o
0 -6 -4 85.899 85.899 0.631 2.214 o
0 -6 -2 87.430 88.047 0.641 2.130 o
0 -5 -7 98.039 98.260 0.723 1.696 o
0 -5 -5 25.809 25.354 0.193 24.645 o
0 -5 -3 13.791 13.746 0.112 83.558 o
0 -5 -1 32.790 34.030 0.255 14.646 o
0 -4 -8 59.642 60.035 0.438 4.577 o
0 -4 -6 302.937 307.743 2.230 0.176 o
0 -4 -4 484.404 490.579 3.543 0.069 o
0 -4 -2 110.357 113.564 0.825 1.313 o
0 -3 -9 43.117 43.927 0.336 8.552 o
0 -3 -7 126.895 129.897 0.947 0.997 o
0 -3 -5 710.455 724.662 5.234 0.032 o
0 -3 -3 680.627 688.290 4.949 0.035 o
0 -3 -1 92.651 84.870 0.611 2.056 o
0 -2 -10 9.564 9.633 0.102 154.891 o
0 -2 -8 50.980 52.297 0.387 6.140 o
0 -2 -6 103.748 102.354 0.743 1.540 o
0 -2 -4 254.934 247.708 1.792 0.259 o
0 -2 -2 1035.640 1004.430 7.219 0.016 o
0 -1 -9 67.501 66.491 0.489 3.632 o
0 -1 -7 4.888 4.735 0.051 611.160 o
0 -1 -5 120.197 123.869 0.896 1.107 o
0 -1 -3 279.571 268.103 1.935 0.218 o
0 -1 -1 356.203 399.069 2.871 0.117 o
0 0 4 429.503 405.148 2.973 0.093 o
0 0 6 315.720 302.245 2.240 0.170 o
0 0 8 388.569 387.064 2.861 0.108 o
0 0 10 282.393 279.059 2.240 0.202 o
0 1 1 356.056 399.466 2.871 0.117 o
0 1 3 279.651 266.270 1.924 0.219 o
0 1 5 120.275 122.759 0.886 1.116 o
0 1 7 4.849 4.857 0.051 608.288 o
0 1 9 67.331 66.511 0.489 3.642 o
0 2 0 1977.510 1874.440 13.482 0.004 o
0 2 2 1035.060 1011.070 7.280 0.016 o
0 2 4 254.948 246.170 1.782 0.260 o
0 2 6 103.965 102.323 0.743 1.537 o
0 2 8 51.081 52.348 0.387 6.123 o
0 2 10 9.549 10.009 0.122 137.433 o
0 3 1 92.763 84.738 0.611 2.055 o
0 3 3 680.999 687.466 4.949 0.035 o
0 3 5 710.928 718.420 5.224 0.032 o
0 3 7 127.003 128.207 0.937 1.007 o
0 3 9 42.840 43.550 0.326 8.735 o
0 4 0 16.305 16.384 0.122 60.965 o
0 4 2 110.320 114.216 0.825 1.310 o
0 4 4 483.944 491.780 3.564 0.069 o
0 4 6 302.592 307.794 2.240 0.176 o
0 4 8 59.832 60.748 0.448 4.501 o
0 5 1 32.901 34.070 0.255 14.580 o
0 5 3 13.935 13.838 0.112 82.284 o
0 5 5 25.607 25.476 0.204 24.423 o
0 5 7 97.791 98.057 0.723 1.703 o
0 6 0 53.989 54.384 0.397 5.581 o
0 6 2 87.557 87.986 0.641 2.127 o
0 6 4 85.813 86.337 0.631 2.211 o
0 6 6 13.712 13.644 0.122 81.906 o
0 7 1 56.678 57.673 0.428 4.999 o
0 7 3 1.995 2.169 0.061 1254.160 o
1 1 0 636.582 680.450 4.888 0.038 o
1 1 2 1141.300 1145.660 8.227 0.013 o
1 1 4 353.170 364.337 2.627 0.128 o
1 1 6 44.047 45.638 0.336 8.165 o
1 1 8 63.573 62.734 0.458 4.095 o
1 1 10 168.660 166.635 1.242 0.578 o
1 2 1 142.687 141.810 1.018 0.812 o
1 2 3 45.500 47.654 0.346 7.609 o
1 2 5 154.010 147.370 1.069 0.717 o
1 2 7 222.416 220.683 1.609 0.333 o
1 2 9 63.923 64.251 0.479 3.967 o
1 3 2 141.568 139.306 1.008 0.830 o
1 3 4 602.507 602.453 4.368 0.045 o
1 3 6 294.667 296.828 2.159 0.188 o
1 3 8 57.898 57.093 0.417 4.939 o
1 4 1 16.031 16.312 0.122 62.309 o
1 4 3 218.768 217.242 1.568 0.345 o
1 4 5 408.144 419.251 3.055 0.096 o
1 4 7 131.700 135.518 0.988 0.921 o
1 5 0 195.784 191.979 1.385 0.436 o
1 5 2 157.545 154.569 1.120 0.671 o
1 5 4 55.037 53.315 0.397 5.520 o
1 5 6 40.041 39.284 0.295 10.294 o
1 6 1 55.669 53.346 0.397 5.445 o
1 6 3 16.742 16.984 0.132 56.612 o
1 6 5 40.794 41.605 0.316 9.568 o
1 7 0 717.067 714.418 5.203 0.032 o
1 7 2 331.653 335.388 2.464 0.147 o
1 7 4 22.236 21.862 0.183 32.230 o
2 1 1 1477.980 1493.600 10.773 0.007 o
2 1 3 1326.370 1360.530 9.795 0.009 o
2 1 5 339.746 329.411 2.383 0.146 o
2 1 7 276.794 272.654 1.975 0.217 o
2 1 9 56.202 56.462 0.417 5.144 o
2 2 0 701.172 731.067 5.264 0.032 o
2 2 2 1483.280 1518.750 10.956 0.007 o
2 2 4 519.237 537.448 3.880 0.059 o
2 2 6 224.179 220.551 1.599 0.331 o
2 2 8 145.973 145.110 1.059 0.772 o
2 3 1 614.465 600.192 4.317 0.044 o
2 3 3 247.322 243.828 1.762 0.272 o
2 3 5 96.532 91.306 0.672 1.836 o
2 3 7 46.019 44.813 0.336 7.847 o
2 3 9 10.504 10.437 0.102 135.019 o
2 4 0 11.692 11.618 0.092 117.757 o
2 4 2 37.254 36.932 0.275 11.819 o
2 4 4 1.064 1.110 0.041 3155.530 o
2 4 6 107.135 111.253 0.815 1.380 o
2 4 8 93.497 94.126 0.692 1.858 o
2 5 1 328.885 332.843 2.403 0.150 o
2 5 3 318.323 318.200 2.311 0.162 o
2 5 5 132.642 137.177 1.008 0.902 o
2 5 7 179.070 179.394 1.324 0.508 o
2 6 0 34.600 33.531 0.255 13.891 o
2 6 2 91.460 92.202 0.672 1.944 o
2 6 4 65.651 64.658 0.479 3.833 o
2 7 1 10.369 10.152 0.102 138.829 o
2 7 3 18.446 18.593 0.163 45.095 o
3 1 0 179.833 175.239 1.263 0.519 o
3 1 2 59.590 60.025 0.438 4.582 o
3 1 4 20.842 20.334 0.153 38.179 o
3 1 6 143.154 139.754 1.018 0.815 o
3 1 8 106.442 107.302 0.784 1.435 o
3 2 1 100.706 102.079 0.743 1.597 o
3 2 3 282.650 299.190 2.159 0.196 o
3 2 5 114.407 120.040 0.866 1.204 o
3 2 7 12.632 13.217 0.112 94.051 o
3 2 9 95.218 96.061 0.713 1.784 o
3 3 0 189.015 189.678 1.375 0.458 o
3 3 2 22.914 24.428 0.183 29.261 o
3 3 4 65.171 67.906 0.499 3.714 o
3 3 6 15.090 15.263 0.122 69.284 o
3 3 8 44.655 43.998 0.336 8.210 o
3 4 1 150.222 147.421 1.069 0.738 o
3 4 3 162.698 157.542 1.140 0.637 o
3 4 5 43.908 42.644 0.316 8.669 o
3 4 7 18.770 18.603 0.153 45.223 o
3 5 0 146.644 144.865 1.049 0.771 o
3 5 2 214.359 209.544 1.517 0.364 o
3 5 4 111.364 111.854 0.815 1.316 o
3 5 6 135.976 138.430 1.018 0.870 o
3 6 1 22.987 22.961 0.183 30.215 o
3 6 3 3.151 3.207 0.071 761.444 o
3 6 5 43.250 42.389 0.326 8.775 o
3 7 0 94.463 94.381 0.692 1.833 o
4 1 1 409.405 410.025 2.963 0.098 o
4 1 3 186.384 182.174 1.324 0.481 o
4 1 5 43.582 43.234 0.316 8.676 o
4 1 7 60.454 61.695 0.458 4.381 o
4 2 0 101.340 98.250 0.713 1.638 o
4 2 2 39.638 38.255 0.285 10.674 o
4 2 4 57.061 53.376 0.387 5.322 o
4 2 6 13.526 12.901 0.102 91.108 o
4 2 8 32.265 32.319 0.255 15.363 o
4 3 1 1341.310 1368.420 9.938 0.009 o
4 3 3 229.270 229.827 1.670 0.311 o
4 3 5 25.931 26.403 0.204 23.597 o
4 3 7 127.115 128.247 0.957 0.999 o
4 4 0 57.719 59.842 0.438 4.761 o
4 4 2 1.343 1.324 0.041 2858.700 o
4 4 4 48.495 47.562 0.356 7.026 o
4 4 6 11.074 10.712 0.112 120.828 o
4 5 1 142.798 145.130 1.069 0.790 o
4 5 3 60.355 59.781 0.438 4.526 o
4 5 5 18.470 19.031 0.163 44.457 o
4 6 2 43.409 45.332 0.346 8.260 o
5 1 0 329.909 328.159 2.383 0.151 o
5 1 2 382.538 369.998 2.678 0.115 o
5 1 4 211.901 209.086 1.517 0.369 o
5 1 6 203.006 203.384 1.487 0.396 o
5 2 1 99.973 101.101 0.733 1.625 o
5 2 3 152.627 148.704 1.079 0.719 o
5 2 5 23.979 22.269 0.173 29.768 o
5 2 7 9.759 9.867 0.102 149.933 o
5 3 0 21.106 21.668 0.163 35.632 o
5 3 2 2.915 3.055 0.041 1390.480 o
5 3 4 50.713 50.495 0.377 6.350 o
5 3 6 14.546 14.459 0.143 70.061 o
5 4 1 84.442 85.848 0.631 2.259 o
5 4 3 125.102 124.327 0.906 1.052 o
5 4 5 23.468 24.448 0.193 28.007 o
5 5 0 2.017 2.118 0.071 995.671 o
5 5 2 29.810 30.476 0.244 17.577 o
5 5 4 14.210 14.327 0.143 72.122 o
6 1 1 195.531 197.671 1.436 0.425 o
6 1 3 203.243 201.805 1.466 0.399 o
6 1 5 87.649 88.689 0.662 2.097 o
6 2 0 19.944 19.805 0.153 40.767 o
6 2 2 16.618 17.035 0.143 55.624 o
6 2 4 13.295 13.441 0.122 85.365 o
6 3 1 133.642 132.575 0.967 0.923 o
6 3 3 33.011 32.665 0.255 14.880 o
6 3 5 8.955 9.246 0.112 159.641 o
6 4 0 97.480 97.537 0.713 1.721 o
6 4 2 185.939 187.234 1.364 0.471 o
7 1 0 118.793 118.035 0.866 1.165 o
7 1 2 87.938 87.589 0.652 2.113 o
7 1 4 42.595 42.725 0.336 8.808 o
7 2 1 1.833 2.067 0.081 823.476 o
7 2 3 116.109 115.133 0.855 1.217 o
;
_olex2_submission_special_instructions 'No special instructions were received'
loop_
_space_group_symop_id
_space_group_symop_operation_xyz
1 x,y,z
2 y,-x,-z
3 -y,x,-z
4 -x,-y,z
5 x+1/2,y+1/2,z+1/2
6 y+1/2,-x+1/2,-z+1/2
7 -y+1/2,x+1/2,-z+1/2
8 -x+1/2,-y+1/2,z+1/2
loop_
_atom_site_label
_atom_site_type_symbol
_atom_site_fract_x
_atom_site_fract_y
_atom_site_fract_z
_atom_site_U_iso_or_equiv
_atom_site_adp_type
_atom_site_occupancy
_atom_site_site_symmetry_order
_atom_site_refinement_flags_posn
_atom_site_refinement_flags_adp
_atom_site_refinement_flags_occupancy
O1 O -0.31964(5) -0.24565(5) 0.01872(4) 0.00773(13) Uani 1.000000 1 . . .
C1 C -0.16023(7) -0.12528(7) 0.10684(6) 0.00597(14) Uani 1.000000 1 . . .
C5 C 0.0 0.0 0.0 0.00444(19) Uani 1.000000 4 S T P
H1 H -0.2665(10) -0.3897(15) 0.0014(13) 0.0209(18) Uani 1.000000 1 . . .
H1a H -0.2459(13) -0.0119(15) 0.1792(12) 0.021(2) Uani 1.000000 1 . . .
H1b H -0.0662(16) -0.2347(16) 0.1847(10) 0.025(2) Uani 1.000000 1 . . .
loop_
_atom_site_aniso_label
_atom_site_aniso_U_11
_atom_site_aniso_U_22
_atom_site_aniso_U_33
_atom_site_aniso_U_12
_atom_site_aniso_U_13
_atom_site_aniso_U_23
O1 0.00525(18) 0.0062(2) 0.01170(18) -0.00112(11) 0.00033(12) 0.00003(15)
C1 0.0063(2) 0.0053(2) 0.0063(3) -0.00053(15) 0.00102(15) 0.00062(14)
C5 0.0043(2) 0.0043(2) 0.0048(4) -0.000000 -0.000000 0.000000
H1 0.023(4) 0.007(4) 0.033(6) -0.006(3) -0.005(5) 0.001(5)
H1a 0.024(5) 0.018(4) 0.020(4) -0.018(3) 0.003(4) 0.008(4)
H1b 0.024(5) 0.029(5) 0.022(5) -0.012(4) 0.002(4) 0.006(5)
loop_
_atom_type_symbol
_atom_type_description
_atom_type_scat_dispersion_real
_atom_type_scat_dispersion_imag
_atom_type_scat_source
_atom_type_scat_dispersion_source
C C 0.00347 0.00161
'Clementi & Roetti, C., At. Data Nucl. Data Tables 1974, 14, (177-478); Clementi & Raimondi, J. Chem. Phys., 1963, 38, (2686-2689)'
'Henke, Gullikson and Davis, At. Data and Nucl. Data Tables, 1993, 54, 2'
H H 0.00000 0.00000
'Clementi & Roetti, C., At. Data Nucl. Data Tables 1974, 14, (177-478); Clementi & Raimondi, J. Chem. Phys., 1963, 38, (2686-2689)'
'Henke, Gullikson and Davis, At. Data and Nucl. Data Tables, 1993, 54, 2'
N N 0.00653 0.00323
'Clementi & Roetti, C., At. Data Nucl. Data Tables 1974, 14, (177-478); Clementi & Raimondi, J. Chem. Phys., 1963, 38, (2686-2689)'
'Henke, Gullikson and Davis, At. Data and Nucl. Data Tables, 1993, 54, 2'
O O 0.01158 0.00611
'Clementi & Roetti, C., At. Data Nucl. Data Tables 1974, 14, (177-478); Clementi & Raimondi, J. Chem. Phys., 1963, 38, (2686-2689)'
'Henke, Gullikson and Davis, At. Data and Nucl. Data Tables, 1993, 54, 2'
loop_
_geom_angle_atom_site_label_1
_geom_angle_atom_site_label_2
_geom_angle_atom_site_label_3
_geom_angle
_geom_angle_site_symmetry_1
_geom_angle_site_symmetry_3
_geom_angle_publ_flag
H1 O1 C1 108.9(5) . . ?
C5 C1 O1 112.12(3) 4 . ?
H1a C1 O1 107.7(4) . . ?
H1a C1 C5 109.4(4) . 4 ?
H1b C1 O1 111.0(5) . . ?
H1b C1 C5 109.0(5) . 4 ?
H1b C1 H1a 107.5(7) . . ?
C1 C5 C1 107.50(4) . 4 ?
C1 C5 C1 110.465(19) 3 . ?
C1 C5 C1 110.465(19) 3 4 ?
C1 C5 C1 110.465(19) 2 4 ?
C1 C5 C1 107.50(4) 3 2 ?
C1 C5 C1 110.465(19) 2 . ?
loop_
_geom_bond_atom_site_label_1
_geom_bond_atom_site_label_2
_geom_bond_distance
_geom_bond_site_symmetry_2
_geom_bond_publ_flag
O1 C1 1.4278(6) . ?
O1 H1 0.946(10) . ?
C1 C5 1.5351(4) 4 ?
C1 H1a 1.061(10) . ?
C1 H1b 1.100(10) . ?
loop_
_refln_index_h
_refln_index_k
_refln_index_l
_refln_F_squared_meas
_refln_F_squared_sigma
0 0 4 397.89 2.92
0 0 6 296.83 2.2
0 0 8 380.13 2.81
0 0 10 274.06 2.2
0 0 12 4.28 0.18
0 0 14 31.95 0.49
1 0 -19 15.76 0.37
1 0 -17 9.12 0.42
1 0 -13 6.92 0.24
1 0 -11 29.19 0.27
1 0 -9 65.32 0.48
1 0 -7 4.77 0.05
1 0 -5 120.56 0.87
1 0 -3 261.5 1.89
1 0 -1 392.31 2.82
1 0 1 391.92 2.82
1 0 3 263.3 1.9
1 0 5 121.65 0.88
1 0 7 4.65 0.05
1 0 9 65.3 0.48
1 0 11 29.56 0.26
1 0 13 7.32 0.24
1 0 17 10.5 0.37
1 0 19 16.75 0.37
1 1 -20 14.27 0.35
1 1 -18 10.69 0.8
1 1 -14 33.34 0.4
1 1 -10 163.07 1.21
1 1 -8 61.05 0.45
1 1 -6 44.87 0.33
1 1 -4 356.97 2.57
1 1 -2 1130.54 8.13
1 1 0 668.26 4.8
1 1 2 1125.14 8.08
1 1 4 357.81 2.58
1 1 6 44.82 0.33
1 1 8 61.61 0.45
1 1 10 163.65 1.22
1 1 14 33.06 0.42
1 1 18 9.73 0.42
1 1 20 14.19 0.76
1 2 -15 38.17 0.47
1 2 -13 12.3 0.24
1 2 -9 63.41 0.47
1 2 -7 216.76 1.57
1 2 -5 145.29 1.05
1 2 -3 47.05 0.34
1 2 -1 138.75 1
1 2 1 139.27 1
1 2 3 46.8 0.34
1 2 5 144.73 1.05
1 2 7 216.73 1.58
1 2 9 63.1 0.47
1 2 13 12.32 0.3
1 2 15 38.03 0.45
1 2 17 26.21 0.5
1 3 -18 10.8 0.35
1 3 -16 17.11 0.36
1 3 -14 60.32 0.58
1 3 -12 23.19 0.22
1 3 -10 29.98 0.24
1 3 -8 56.17 0.41
1 3 -6 293.13 2.12
1 3 -4 591.88 4.27
1 3 -2 136.79 0.99
1 3 2 136.81 0.99
1 3 4 591.66 4.29
1 3 6 291.51 2.12
1 3 8 56.07 0.41
1 3 10 30.08 0.24
1 3 12 22.11 0.24
1 3 14 59.52 0.62
1 3 16 16.27 0.32
1 3 18 9.98 0.34
1 4 -19 7.71 0.39
1 4 -17 10.16 0.45
1 4 -15 40.58 0.59
1 4 -13 48.93 0.48
1 4 -11 12.12 0.15
1 4 -9 52.91 0.4
1 4 -7 134.18 0.97
1 4 -5 411.93 2.98
1 4 -3 211.83 1.53
1 4 -1 15.88 0.12
1 4 1 16.02 0.12
1 4 3 213.35 1.54
1 4 5 411.74 3
1 4 7 133.09 0.97
1 4 9 52.87 0.4
1 4 11 12.41 0.16
1 4 13 48.59 0.46
1 4 15 39.58 0.5
1 4 17 10.28 0.39
1 4 19 7.49 0.36
1 5 -20 3.78 0.35
1 5 -18 4.55 0.4
1 5 -16 11.63 0.5
1 5 -14 7.23 0.26
1 5 -12 3.61 0.19
1 5 -10 1.61 0.17
1 5 -8 27.52 0.22
1 5 -6 38.77 0.29
1 5 -4 52.62 0.38
1 5 -2 151.86 1.1
1 5 0 188.54 1.36
1 5 2 151.8 1.1
1 5 4 52.36 0.39
1 5 6 38.58 0.29
1 5 8 27.42 0.22
1 5 12 3.56 0.19
1 5 14 7.27 0.26
1 5 16 11.15 0.33
1 5 18 3.99 0.28
1 6 -19 10.67 0.35
1 6 -17 5.24 0.39
1 6 -15 3.63 0.31
1 6 -13 10.16 0.33
1 6 -11 27.94 0.32
1 6 -9 58.98 0.47
1 6 -7 3.13 0.08
1 6 -5 40.66 0.31
1 6 -3 16.74 0.14
1 6 -1 52.27 0.38
1 6 1 52.39 0.39
1 6 3 16.68 0.13
1 6 5 40.86 0.31
1 6 7 3.02 0.08
1 6 9 59.09 0.46
1 6 11 28.15 0.31
1 6 13 9.77 0.26
1 6 15 3.3 0.3
1 6 19 10.95 0.36
1 7 -18 6.81 0.33
1 7 -14 15.86 0.42
1 7 -10 126.94 1.16
1 7 -8 160.03 1.2
1 7 -6 21.8 0.18
1 7 -4 21.31 0.18
1 7 -2 327.67 2.39
1 7 0 701.62 5.11
1 7 2 329.38 2.42
1 7 4 21.47 0.18
1 7 6 21.76 0.18
1 7 8 157.54 1.18
1 7 10 124.73 1.07
1 7 12 2.91 0.34
1 7 14 16.18 0.3
1 7 18 6.37 0.31
1 8 -17 6.78 0.25
1 8 -11 8.03 0.25
1 8 -9 23.43 0.28
1 8 -5 20.49 0.2
1 8 -3 7.69 0.11
1 8 -1 9.61 0.11
1 8 1 9.33 0.11
1 8 3 7.52 0.1
1 8 5 20 0.2
1 8 9 23.42 0.24
1 8 11 8.04 0.21
1 8 17 5.87 0.23
1 8 19 8.22 0.54
1 9 -16 5.49 0.27
1 9 -14 8.5 0.27
1 9 -10 4.94 0.27
1 9 -8 10.73 0.21
1 9 -6 4.95 0.2
1 9 -4 6.67 0.18
1 9 -2 40.61 0.37
1 9 0 76.59 0.62
1 9 2 41.76 0.37
1 9 4 6.56 0.19
1 9 6 5.13 0.17
1 9 8 10.45 0.2
1 9 10 5.66 0.23
1 9 14 9.25 0.35
1 9 16 4.82 0.25
1 10 -15 11.15 0.28
1 10 -13 18.38 0.36
1 10 -9 7.15 0.29
1 10 -7 24.84 0.3
1 10 -5 133.36 1.13
1 10 -3 82.8 0.7
1 10 -1 2.66 0.19
1 10 1 3.13 0.26
1 10 3 84.92 0.7
1 10 5 131.56 1.11
1 10 7 23.61 0.26
1 10 9 7.98 0.25
1 10 11 3.3 0.3
1 10 13 17.85 0.39
1 10 15 12.02 0.28
1 10 17 2.18 0.21
1 11 -12 8.82 0.38
1 11 -10 7 0.29
1 11 -8 12.38 0.23
1 11 -6 55.03 0.52
1 11 -4 81.77 0.78
1 11 -2 15.41 0.24
1 11 2 15 0.28
1 11 4 83.55 0.75
1 11 6 54.73 0.5
1 11 8 12.93 0.25
1 11 10 7.43 0.23
1 11 12 8.1 0.3
1 11 14 17.46 0.34
1 11 16 4.49 0.24
1 12 -9 4.17 0.27
1 12 -7 11.88 0.24
1 12 -5 2.86 0.35
1 12 -1 5.68 0.2
1 12 1 5.71 0.25
1 12 5 2.58 0.33
1 12 7 10.99 0.27
1 12 9 4.16 0.2
1 12 13 2.15 0.22
1 13 -10 22.01 0.29
1 13 -8 10.81 0.25
1 13 -6 4.44 0.27
1 13 -4 11.29 0.32
1 13 -2 11.85 0.36
1 13 0 15.07 0.3
1 13 2 11.83 0.35
1 13 4 11.57 0.3
1 13 6 5.52 0.24
1 13 8 11.37 0.24
1 13 10 22.6 0.28
1 13 12 16.27 0.39
1 14 -5 2.39 0.31
1 14 1 16.01 0.36
1 14 9 11.66 0.25
1 15 4 8.18 0.19
1 15 6 1.69 0.22
2 0 -18 5.02 0.4
2 0 -16 13.4 0.37
2 0 -14 14.88 0.27
2 0 -12 2.41 0.21
2 0 -10 9.83 0.12
2 0 -8 51.41 0.38
2 0 -6 100.49 0.73
2 0 -4 241.76 1.75
2 0 -2 992.96 7.15
2 0 0 1840.86 13.24
2 0 2 986.44 7.09
2 0 4 243.27 1.76
2 0 6 100.52 0.73
2 0 8 51.36 0.38
2 0 10 9.46 0.1
2 0 12 2.34 0.17
2 0 14 14.3 0.32
2 0 16 12.56 0.35
2 0 18 4.82 0.38
2 0 20 4.27 0.3
2 1 -21 6.02 0.3
2 1 -17 20.88 0.39
2 1 -15 17.84 0.32
2 1 -13 18.21 0.32
2 1 -11 47.52 0.37
2 1 -9 55.16 0.42
2 1 -7 267.84 1.94
2 1 -5 325.72 2.35
2 1 -3 1330.67 9.58
2 1 -1 1479.14 10.65
2 1 1 1466.84 10.58
2 1 3 1336.16 9.62
2 1 5 323.51 2.34
2 1 7 267.77 1.94
2 1 9 55.45 0.41
2 1 11 47.96 0.37
2 1 13 19 0.3
2 1 15 17.24 0.32
2 1 17 20.71 0.43
2 1 21 6.4 0.28
2 2 -20 5.09 0.32
2 2 -18 4.29 0.48
2 2 -16 24.02 0.4
2 2 -14 3.93 0.26
2 2 -12 56.49 0.48
2 2 -10 37.09 0.29
2 2 -8 141.45 1.05
2 2 -6 217.06 1.57
2 2 -4 530.97 3.82
2 2 -2 1490.5 10.73
2 2 0 717.97 5.17
2 2 2 1491.54 10.76
2 2 4 527.82 3.81
2 2 6 216.6 1.57
2 2 8 142.51 1.04
2 2 10 36.99 0.29
2 2 12 56.75 0.49
2 2 14 3.2 0.28
2 2 16 25.22 0.39
2 3 -21 3.71 0.3
2 3 -19 4.44 0.38
2 3 -17 8.9 0.35
2 3 -15 12.02 0.28
2 3 -13 5.98 0.21
2 3 -9 10.39 0.1
2 3 -7 44.41 0.33
2 3 -5 89.44 0.65
2 3 -3 238.27 1.72
2 3 -1 585.73 4.22
2 3 1 589.44 4.24
2 3 3 239.46 1.73
2 3 5 89.67 0.66
2 3 7 44.01 0.33
2 3 9 10.25 0.1
2 3 13 5.65 0.19
2 3 15 11.92 0.34
2 3 17 9.08 0.34
2 4 -18 7.35 0.42
2 4 -16 28.93 0.43
2 4 -14 13.08 0.24
2 4 -12 4.1 0.25
2 4 -10 3.53 0.09
2 4 -8 92.66 0.69
2 4 -6 109.29 0.79
2 4 -4 1.05 0.02
2 4 -2 36.49 0.27
2 4 0 11.41 0.09
2 4 2 36.27 0.27
2 4 4 1.09 0.04
2 4 6 109.26 0.8
2 4 8 92.44 0.68
2 4 10 3.45 0.09
2 4 12 4.9 0.2
2 4 14 13.38 0.25
2 4 16 29.49 0.49
2 4 18 7.97 0.35
2 5 -21 5.98 0.26
2 5 -17 15.75 0.45
2 5 -15 10.51 0.27
2 5 -13 17.62 0.29
2 5 -11 51.54 0.46
2 5 -9 37.5 0.29
2 5 -7 178.63 1.31
2 5 -5 135.27 0.99
2 5 -3 310.96 2.26
2 5 -1 325.77 2.35
2 5 1 326.88 2.36
2 5 3 312.5 2.27
2 5 5 134.72 0.99
2 5 7 176.18 1.3
2 5 9 36.99 0.29
2 5 11 52.26 0.46
2 5 13 16.18 0.28
2 5 15 10.42 0.28
2 5 17 14.3 0.45
2 6 -18 6.12 0.32
2 6 -14 17.64 0.31
2 6 -12 81.12 0.75
2 6 -10 84.84 0.71
2 6 -8 23.48 0.2
2 6 -6 2.23 0.07
2 6 -4 62.94 0.47
2 6 -2 89.64 0.66
2 6 0 32.93 0.25
2 6 2 90.55 0.66
2 6 4 63.5 0.47
2 6 6 2.03 0.08
2 6 8 23.35 0.19
2 6 10 84.59 0.7
2 6 12 80.78 0.72
2 6 14 16.03 0.36
2 6 18 5.66 0.37
2 7 -19 8.54 0.29
2 7 -17 5.61 0.23
2 7 -13 5.21 0.3
2 7 -11 17.12 0.26
2 7 -9 25.39 0.28
2 7 -5 28.41 0.23
2 7 -3 18.29 0.16
2 7 -1 9.92 0.1
2 7 1 9.97 0.1
2 7 3 18.26 0.16
2 7 5 27.91 0.22
2 7 9 25.31 0.26
2 7 11 17.11 0.29
2 7 13 6.29 0.32
2 7 17 6.04 0.24
2 7 19 8.32 0.31
2 8 -18 3.37 0.22
2 8 -14 15.61 0.3
2 8 -12 73.53 0.71
2 8 -10 58.62 0.58
2 8 -8 12.01 0.2
2 8 -6 1.9 0.17
2 8 -4 42.97 0.48
2 8 -2 80.05 0.6
2 8 0 27.3 0.22
2 8 2 80.53 0.61
2 8 6 2.37 0.27
2 8 8 11.61 0.17
2 8 10 60.07 0.54
2 8 12 71.94 0.71
2 8 14 15.82 0.35
2 8 18 2.52 0.22
2 9 -17 12.1 0.22
2 9 -15 18.04 0.27
2 9 -13 5.8 0.3
2 9 -9 23.76 0.41
2 9 -7 73.54 0.64
2 9 -5 34.27 0.34
2 9 -3 11.66 0.18
2 9 -1 6.89 0.12
2 9 1 6.84 0.13
2 9 3 11.43 0.18
2 9 5 32.91 0.33
2 9 7 73.22 0.64
2 9 9 24.84 0.32
2 9 13 6.5 0.31
2 9 15 20.15 0.32
2 9 17 12.14 0.25
2 10 -16 5.78 0.23
2 10 -12 6.96 0.37
2 10 -10 7.12 0.27
2 10 -8 11.68 0.27
2 10 -6 53.4 0.51
2 10 -4 76.34 0.72
2 10 -2 10.43 0.18
2 10 2 10.8 0.2
2 10 4 75.59 0.66
2 10 6 52.54 0.48
2 10 8 11.81 0.22
2 10 10 7.71 0.24
2 10 12 8.12 0.3
2 10 14 19.73 0.37
2 10 16 6.56 0.25
2 11 -11 5.14 0.33
2 11 -9 17.97 0.29
2 11 -7 35.41 0.4
2 11 -5 54.52 0.53
2 11 -3 25.37 0.32
2 11 3 24.6 0.32
2 11 5 54.53 0.5
2 11 7 34.27 0.37
2 11 9 18.31 0.27
2 11 11 4.94 0.32
2 11 13 13.86 0.37
2 11 15 13.42 0.25
2 12 -8 5.64 0.21
2 12 -6 9.75 0.25
2 12 -4 6.83 0.23
2 12 -2 15.38 0.35
2 12 0 11.43 0.32
2 12 2 15.9 0.32
2 12 4 7.76 0.23
2 12 6 8.73 0.23
2 12 8 5.67 0.2
2 13 -9 14.1 0.24
2 13 -5 5.37 0.22
2 13 -3 3.61 0.27
2 13 -1 15.44 0.5
2 13 1 16.61 0.4
2 13 3 5.04 0.39
2 13 5 5.31 0.22
2 13 9 14.26 0.31
2 13 11 9.85 0.21
2 14 -6 4.01 0.25
2 14 -2 48.01 0.63
2 14 0 97.06 1.06
2 14 2 48.04 0.6
2 14 4 5.91 0.34
2 14 6 5.79 0.31
2 14 8 25.54 0.29
2 14 10 20.14 0.37
2 15 3 2.1 0.21
2 15 5 3.05 0.24
3 0 -19 9.68 0.53
3 0 -17 6.68 0.32
3 0 -15 39.32 0.46
3 0 -13 54.65 0.52
3 0 -11 10.99 0.14
3 0 -9 42.77 0.32
3 0 -7 125.91 0.92
3 0 -5 705.55 5.13
3 0 -3 675.15 4.86
3 0 -1 83.22 0.6
3 0 1 83.35 0.6
3 0 3 675.96 4.86
3 0 5 711.68 5.14
3 0 7 127.57 0.93
3 0 9 43.14 0.33
3 0 11 10.76 0.13
3 0 13 55.19 0.52
3 0 15 40.06 0.71
3 0 17 6.64 0.34
3 1 -18 6.55 0.41
3 1 -16 31.63 0.42
3 1 -14 26.88 0.37
3 1 -12 6.35 0.15
3 1 -10 10.21 0.11
3 1 -8 105.47 0.78
3 1 -6 136.75 1
3 1 -4 19.68 0.15
3 1 -2 59.08 0.43
3 1 0 172.1 1.24
3 1 2 58.95 0.43
3 1 4 19.97 0.15
3 1 6 137.25 1
3 1 8 105.38 0.77
3 1 10 10.3 0.1
3 1 12 6 0.13
3 1 14 27.28 0.38
3 1 16 30.42 0.48
3 2 -21 8.59 0.46
3 2 -19 13.21 0.31
3 2 -17 5.26 0.29
3 2 -15 6.39 0.28
3 2 -13 67.39 0.61
3 2 -11 141.49 1.09
3 2 -9 92.94 0.69
3 2 -7 12.85 0.1
3 2 -5 118.06 0.85
3 2 -3 294.57 2.12
3 2 -1 100.13 0.73
3 2 1 100.25 0.73
3 2 3 293.83 2.12
3 2 5 117.89 0.85
3 2 7 12.98 0.11
3 2 9 94.34 0.7
3 2 11 141.92 1.08
3 2 13 68.32 0.69
3 2 15 6.78 0.34
3 3 -20 6.92 0.35
3 3 -14 9.97 0.34
3 3 -12 5.29 0.15
3 3 -10 65.28 0.5
3 3 -8 44.01 0.34
3 3 -6 14.98 0.12
3 3 -4 66.4 0.48
3 3 -2 24.02 0.18
3 3 0 186.28 1.35
3 3 2 23.99 0.18
3 3 4 66.69 0.49
3 3 6 14.99 0.12
3 3 8 43.21 0.33
3 3 10 64.24 0.49
3 3 12 5.4 0.18
3 3 14 10.51 0.39
3 4 -19 11.98 0.39
3 4 -15 7.91 0.27
3 4 -13 68.29 0.59
3 4 -11 134.78 1.07
3 4 -9 90.29 0.68
3 4 -7 17.94 0.15
3 4 -5 41.13 0.31
3 4 -3 153.77 1.11
3 4 -1 144.35 1.04
3 4 1 144.78 1.05
3 4 3 154.72 1.12
3 4 5 41.88 0.31
3 4 7 18.27 0.15
3 4 9 91.77 0.69
3 4 11 135.84 1.18
3 4 13 68.16 0.67
3 4 15 7.85 0.43
3 4 17 4.13 0.41
3 5 -18 3.68 0.39
3 5 -16 18.02 0.38
3 5 -14 3.58 0.28
3 5 -12 30.06 0.32
3 5 -10 16.78 0.18
3 5 -8 89.41 0.68
3 5 -6 135.72 1
3 5 -4 109.77 0.8
3 5 -2 206.62 1.49
3 5 0 142.27 1.03
3 5 2 205.79 1.49
3 5 4 109.85 0.8
3 5 6 135.95 1
3 5 8 88.97 0.67
3 5 10 16.6 0.21
3 5 12 29.45 0.34
3 5 14 3.77 0.33
3 5 16 17.33 0.79
3 6 -17 13.6 0.41
3 6 -15 27.99 0.36
3 6 -13 14.59 0.29
3 6 -11 2.37 0.31
3 6 -9 35.66 0.35
3 6 -7 87.59 0.66
3 6 -5 41.78 0.32
3 6 -3 2.69 0.06
3 6 -1 23 0.18
3 6 1 22.55 0.18
3 6 3 3.15 0.07
3 6 5 41.63 0.32
3 6 7 87.63 0.65
3 6 9 35.39 0.34
3 6 11 2.26 0.28
3 6 13 12.67 0.31
3 6 15 29.81 0.48
3 6 17 13.58 0.54
3 7 -16 8.31 0.3
3 7 -14 10.2 0.3
3 7 -10 6.91 0.2
3 7 -8 26.91 0.29
3 7 -6 17 0.18
3 7 -4 4.31 0.1
3 7 -2 49.88 0.38
3 7 0 92.69 0.68
3 7 2 50.17 0.38
3 7 4 4.43 0.1
3 7 6 17.45 0.17
3 7 8 26.73 0.27
3 7 10 6.7 0.19
3 7 14 10.58 0.3
3 7 16 8.69 0.29
3 8 -17 10.25 0.21
3 8 -15 10.32 0.25
3 8 -13 6.55 0.27
3 8 -11 16.52 0.25
3 8 -9 20.28 0.25
3 8 -7 99.42 0.81
3 8 -5 76.99 0.63
3 8 -3 122.85 0.96
3 8 -1 104.34 0.79
3 8 1 103.9 0.88
3 8 3 124.06 0.98
3 8 5 77.82 0.63
3 8 7 102.26 0.85
3 8 9 20.04 0.27
3 8 11 17.03 0.29
3 8 13 6.73 0.29
3 8 15 10.64 0.28
3 8 17 11.35 0.28
3 9 -16 6.47 0.2
3 9 -10 15.55 0.34
3 9 -8 31.87 0.39
3 9 -6 44.9 0.41
3 9 -4 48.3 0.44
3 9 -2 95.14 0.76
3 9 0 60.84 0.54
3 9 2 95.25 0.81
3 9 4 47.46 0.43
3 9 6 44.9 0.4
3 9 8 32.59 0.35
3 9 10 17.11 0.3
3 9 12 21.56 0.39
3 9 16 6.32 0.24
3 10 -7 6.43 0.23
3 10 -5 17.33 0.23
3 10 -3 27.41 0.31
3 10 -1 33.72 0.35
3 10 1 32.82 0.39
3 10 3 27.39 0.33
3 10 5 17.2 0.24
3 10 7 7.07 0.19
3 10 15 2.94 0.29
3 11 -8 20.54 0.3
3 11 -6 18.51 0.29
3 11 -2 11.14 0.24
3 11 2 11.84 0.28
3 11 6 19.25 0.28
3 11 8 19.98 0.26
3 12 -11 15.08 0.38
3 12 -9 10.17 0.38
3 12 -7 34.72 0.38
3 12 -5 26.59 0.32
3 12 -3 60.19 0.7
3 12 -1 62.9 0.73
3 12 1 62.3 0.72
3 12 3 60.62 0.59
3 12 5 28.25 0.33
3 12 7 34.87 0.4
3 12 9 10.96 0.23
3 12 11 15.01 0.25
3 12 13 4.32 0.2
3 13 -10 14.25 0.29
3 13 -8 3.5 0.25
3 13 -4 8.12 0.38
3 13 -2 10.88 0.42
3 13 0 4.01 0.35
3 13 2 12.34 0.35
3 13 8 3.39 0.19
3 13 10 14.98 0.28
3 14 -5 4.85 0.26
3 14 -3 5.06 0.3
3 14 3 4.27 0.28
3 14 5 4.73 0.27
3 14 9 2.98 0.25
3 15 -2 13.74 0.26
3 15 0 4.79 0.3
3 15 2 12.83 0.26
3 15 4 7.26 0.28
4 0 -18 11.5 0.33
4 0 -16 14.88 0.35
4 0 -14 56.45 0.52
4 0 -12 23.83 0.27
4 0 -10 28.65 0.23
4 0 -8 59.66 0.44
4 0 -6 302.28 2.2
4 0 -4 482.97 3.5
4 0 -2 112.17 0.81
4 0 0 16.09 0.12
4 0 2 111.53 0.81
4 0 4 481.79 3.48
4 0 6 302.23 2.19
4 0 8 58.96 0.43
4 0 10 28.8 0.23
4 0 12 24.92 0.27
4 0 14 57.13 0.59
4 0 16 15.83 0.48
4 0 18 10.08 0.37
4 1 -21 4.87 0.2
4 1 -17 9.3 0.3
4 1 -15 15.29 0.3
4 1 -13 7.47 0.21
4 1 -9 23.94 0.2
4 1 -7 60.85 0.45
4 1 -5 42.27 0.31
4 1 -3 179.33 1.3
4 1 -1 403.86 2.92
4 1 1 402.68 2.91
4 1 3 178.91 1.3
4 1 5 42.46 0.31
4 1 7 60.59 0.45
4 1 9 24.01 0.19
4 1 13 8.53 0.24
4 2 -20 7.08 0.23
4 2 -18 13.23 0.33
4 2 -14 7.73 0.26
4 2 -12 15.28 0.21
4 2 -10 55.04 0.43
4 2 -8 31.5 0.25
4 2 -6 12.89 0.11
4 2 -4 52.32 0.38
4 2 -2 37.48 0.28
4 2 0 96.49 0.7
4 2 2 37.57 0.28
4 2 4 52.42 0.38
4 2 6 12.67 0.1
4 2 8 31.74 0.25
4 2 10 55.56 0.43
4 2 12 14.98 0.26
4 2 14 7.98 0.3
4 3 -19 8.41 0.3
4 3 -15 14.32 0.33
4 3 -13 9.06 0.18
4 3 -11 62.67 0.52
4 3 -9 259.92 1.94
4 3 -7 124.49 0.93
4 3 -5 26 0.19
4 3 -3 227.18 1.65
4 3 -1 1344.4 9.75
4 3 1 1343.91 9.76
4 3 3 225.71 1.64
4 3 5 25.93 0.2
4 3 7 125.95 0.94
4 3 9 261.75 1.94
4 3 11 62.35 0.54
4 3 13 8.51 0.21
4 3 15 13.21 0.36
4 4 -18 12.79 0.42
4 4 -14 3.98 0.23
4 4 -10 40.98 0.37
4 4 -8 25.3 0.21
4 4 -6 10.49 0.1
4 4 -4 46.78 0.35
4 4 -2 1.37 0.04
4 4 0 58.77 0.43
4 4 2 1.3 0.04
4 4 4 46.71 0.35
4 4 6 10.52 0.11
4 4 8 25.28 0.22
4 4 10 41.16 0.4
4 4 14 3.98 0.29
4 5 -17 5.36 0.32
4 5 -15 11.57 0.29
4 5 -13 5.44 0.21
4 5 -9 11.03 0.15
4 5 -7 16.35 0.16
4 5 -5 18.97 0.16
4 5 -3 58.15 0.43
4 5 -1 141.49 1.03
4 5 1 142.53 1.05
4 5 3 58.71 0.43
4 5 5 18.69 0.16
4 5 7 16.62 0.16
4 5 9 11.2 0.19
4 5 13 5.38 0.24
4 5 15 10.5 0.28
4 5 17 6.44 0.38
4 6 -16 7.18 0.24
4 6 -14 34.85 0.45
4 6 -12 13.08 0.22
4 6 -10 14.82 0.24
4 6 -8 11.9 0.17
4 6 -6 127.79 0.95
4 6 -4 231.27 1.7
4 6 -2 44.05 0.33
4 6 2 44.52 0.34
4 6 4 230.33 1.69
4 6 6 128.23 0.95
4 6 8 12.36 0.2
4 6 10 14.76 0.23
4 6 12 12.7 0.25
4 6 14 34.79 0.46
4 6 16 6.28 0.25
4 6 18 7.34 0.33
4 7 -17 4.53 0.26
4 7 -15 19.52 0.36
4 7 -13 29.53 0.32
4 7 -11 5.24 0.21
4 7 -9 18.42 0.24
4 7 -7 49.35 0.44
4 7 -5 192.58 1.51
4 7 -3 119.2 0.89
4 7 -1 3.24 0.07
4 7 1 3.15 0.08
4 7 3 120.32 0.9
4 7 5 196.3 1.49
4 7 7 48.15 0.45
4 7 9 18.84 0.26
4 7 11 5.36 0.25
4 7 13 29.59 0.34
4 7 15 19.99 0.4
4 7 17 4.28 0.3
4 8 -16 9.65 0.25
4 8 -14 10.36 0.31
4 8 -12 3.24 0.26
4 8 -10 3 0.29
4 8 -8 23.82 0.32
4 8 -6 21.7 0.24
4 8 -2 10.39 0.15
4 8 0 14.08 0.15
4 8 2 10.24 0.19
4 8 6 22.4 0.24
4 8 8 22.92 0.34
4 8 10 2.76 0.31
4 8 12 3.56 0.29
4 8 14 10.34 0.32
4 8 16 10.76 0.25
4 8 18 3.53 0.22
4 9 -15 4.19 0.33
4 9 -13 23.58 0.44
4 9 -11 45.91 0.52
4 9 -9 37.48 0.43
4 9 -7 5.54 0.24
4 9 -5 17.83 0.24
4 9 -3 28.67 0.29
4 9 -1 21.66 0.26
4 9 1 22.48 0.31
4 9 3 28.22 0.3
4 9 5 18.05 0.26
4 9 7 6.69 0.25
4 9 9 36.33 0.38
4 9 11 45.95 0.56
4 9 13 22.55 0.36
4 9 15 4.62 0.22
4 9 17 3.1 0.19
4 10 -10 22.44 0.41
4 10 -8 18.26 0.29
4 10 -6 2.38 0.33
4 10 -4 6.24 0.19
4 10 -2 11.4 0.22
4 10 0 57.24 0.71
4 10 2 11.33 0.23
4 10 4 5.5 0.21
4 10 8 17.75 0.29
4 10 10 22.26 0.28
4 10 14 4.05 0.25
4 11 -11 39.36 0.53
4 11 -9 26.06 0.48
4 11 -7 4.89 0.26
4 11 -5 9.79 0.22
4 11 -3 27.75 0.33
4 11 -1 24.68 0.39
4 11 1 25.05 0.34
4 11 3 28.21 0.42
4 11 5 9.2 0.26
4 11 7 4.74 0.33
4 11 9 25.65 0.36
4 11 11 39.47 0.57
4 11 13 21.82 0.3
4 11 15 3.27 0.25
4 12 -12 3.57 0.27
4 12 -8 16.36 0.35
4 12 -6 23.35 0.32
4 12 -4 16.38 0.37
4 12 -2 23.93 0.32
4 12 0 12.93 0.33
4 12 2 23.06 0.38
4 12 4 16.52 0.34
4 12 6 23.3 0.35
4 12 8 16.89 0.28
4 12 10 2.4 0.3
4 12 12 3.01 0.32
4 13 -9 8.87 0.26
4 13 -7 13.55 0.29
4 13 -5 9.76 0.3
4 13 -1 4.5 0.3
4 13 1 4.29 0.21
4 13 5 9.04 0.28
4 13 7 15.64 0.25
4 13 9 8.62 0.24
4 13 11 2.16 0.24
4 14 -6 4.04 0.25
4 14 -2 5.39 0.46
4 14 2 6.21 0.27
4 14 6 4.35 0.17
4 14 8 6.44 0.19
4 15 -3 19.04 0.34
4 15 -1 15.63 0.27
4 15 1 15.48 0.34
4 15 3 18.55 0.27
5 0 -17 15.33 0.32
5 0 -15 21.9 0.34
5 0 -13 8.4 0.24
5 0 -9 26.56 0.22
5 0 -7 96.3 0.71
5 0 -5 25.02 0.2
5 0 -3 13.59 0.11
5 0 -1 33.46 0.25
5 0 1 33.42 0.25
5 0 3 13.5 0.11
5 0 5 24.9 0.19
5 0 7 96.5 0.71
5 0 9 25.97 0.22
5 0 13 8.55 0.3
5 0 15 21.99 0.39
5 0 17 16.63 0.4
5 0 21 2.45 0.26
5 1 -20 3.7 0.22
5 1 -18 4.52 0.29
5 1 -16 24.96 0.38
5 1 -14 2.68 0.35
5 1 -12 38.8 0.4
5 1 -10 22.65 0.22
5 1 -8 115.76 0.89
5 1 -6 198.08 1.45
5 1 -4 205.44 1.49
5 1 -2 367.89 2.66
5 1 0 322.28 2.34
5 1 2 363.37 2.63
5 1 4 205.34 1.49
5 1 6 199.74 1.46
5 1 8 116.71 0.88
5 1 10 22.97 0.22
5 1 12 39.4 0.61
5 1 18 5.2 0.34
5 2 -19 8.71 0.28
5 2 -17 3.48 0.38
5 2 -15 4.58 0.28
5 2 -13 59.84 0.56
5 2 -11 120.89 0.98
5 2 -9 58.86 0.46
5 2 -7 9.73 0.12
5 2 -5 21.61 0.17
5 2 -3 147.2 1.07
5 2 -1 100.06 0.73
5 2 1 99.29 0.72
5 2 3 146.04 1.06
5 2 5 21.87 0.17
5 2 7 9.69 0.1
5 2 9 58.84 0.45
5 2 11 121.5 0.99
5 2 13 61.27 0.62
5 3 -18 12.51 0.31
5 3 -16 2.98 0.39
5 3 -14 3.26 0.24
5 3 -12 4.5 0.17
5 3 -10 31.08 0.3
5 3 -8 15.56 0.16
5 3 -6 14.41 0.13
5 3 -4 50.02 0.37
5 3 -2 2.83 0.05
5 3 0 21.28 0.16
5 3 2 3 0.04
5 3 4 49.59 0.37
5 3 6 14.2 0.14
5 3 8 14.96 0.15
5 3 10 30.82 0.29
5 3 12 5.06 0.19
5 3 14 3.26 0.28
5 4 -19 7.44 0.33
5 4 -17 4.31 0.38
5 4 -15 4.58 0.29
5 4 -13 59.92 0.52
5 4 -11 111.58 0.92
5 4 -9 48.21 0.41
5 4 -7 6.05 0.1
5 4 -5 23.22 0.19
5 4 -3 123.7 0.9
5 4 -1 84.23 0.62
5 4 1 84.31 0.62
5 4 3 122.1 0.89
5 4 5 24.01 0.19
5 4 7 6.29 0.1
5 4 9 49.84 0.41
5 4 11 111.54 1
5 4 13 60.11 0.57
5 4 15 4.37 0.32
5 4 17 3.65 0.34
5 5 -18 5.99 0.36
5 5 -16 24.79 0.47
5 5 -14 12.98 0.27
5 5 -12 3.21 0.25
5 5 -10 3.99 0.18
5 5 -8 75.44 0.61
5 5 -6 88.05 0.68
5 5 -4 14.22 0.13
5 5 -2 29.96 0.23
5 5 0 2.08 0.07
5 5 2 29.93 0.24
5 5 4 14.07 0.14
5 5 6 88.35 0.67
5 5 8 76.22 0.62
5 5 10 4.12 0.18
5 5 12 3.2 0.26
5 5 14 14.42 0.28
5 5 16 25.3 0.47
5 6 -17 6.15 0.26
5 6 -15 23.87 0.38
5 6 -13 27.93 0.33
5 6 -11 6.16 0.21
5 6 -9 22.56 0.33
5 6 -7 55.25 0.5
5 6 -5 144.15 1.11
5 6 -3 78.53 0.59
5 6 3 79.06 0.6
5 6 5 144.42 1.11
5 6 7 54.16 0.52
5 6 9 23.4 0.28
5 6 11 5.09 0.19
5 6 13 28.01 0.35
5 6 15 23.92 0.41
5 6 17 4.86 0.29
5 6 19 3.57 0.19
5 7 -16 10.27 0.3
5 7 -14 27.86 0.34
5 7 -12 13.15 0.3
5 7 -10 15.98 0.29
5 7 -8 35.15 0.41
5 7 -6 86.55 0.77
5 7 -4 105.37 0.83
5 7 4 106.81 0.82
5 7 6 85.97 0.77
5 7 8 35.83 0.45
5 7 10 15.48 0.27
5 7 12 13.8 0.28
5 7 14 27.61 0.33
5 7 16 11.48 0.28
5 7 18 4.29 0.22
5 8 -15 5.67 0.26
5 8 -13 2.9 0.34
5 8 -9 5.74 0.23
5 8 -7 22.38 0.31
5 8 -5 9.63 0.17
5 8 -3 20.43 0.25
5 8 -1 32.59 0.31
5 8 1 32.73 0.34
5 8 3 20.24 0.26
5 8 5 9.3 0.21
5 8 7 22.85 0.35
5 8 9 5.16 0.34
5 8 13 2.77 0.28
5 8 15 5.77 0.24
5 8 17 5.18 0.17
5 9 -14 4.87 0.26
5 9 -12 11.82 0.23
5 9 -10 26.78 0.37
5 9 -8 12.41 0.26
5 9 -6 3.88 0.26
5 9 -4 15.26 0.26
5 9 -2 13.74 0.23
5 9 0 34.01 0.35
5 9 2 13.41 0.24
5 9 4 14.88 0.26
5 9 6 3.81 0.24
5 9 8 12.5 0.28
5 9 10 27.26 0.36
5 9 12 10.68 0.3
5 9 14 5.28 0.23
5 10 -11 19.89 0.76
5 10 -9 69.06 0.84
5 10 -7 30.79 0.56
5 10 -3 36.05 0.39
5 10 -1 196.61 1.63
5 10 1 194.9 1.63
5 10 3 35.8 0.39
5 10 5 3.42 0.27
5 10 7 31.48 0.38
5 10 9 71.93 0.68
5 10 11 18.37 0.32
5 10 15 2.99 0.25
5 11 -10 6.93 0.36
5 11 -8 5.26 0.29
5 11 -4 6.9 0.23
5 11 0 6.43 0.23
5 11 4 6.46 0.23
5 11 8 4.81 0.25
5 11 10 7.89 0.28
5 12 -9 3.53 0.28
5 12 -7 2.88 0.3
5 12 -3 9.11 0.25
5 12 -1 27.18 0.37
5 12 1 27.53 0.33
5 12 3 9.29 0.24
5 12 5 2.86 0.28
5 12 7 3.36 0.27
5 12 9 3.41 0.21
5 13 -10 2.22 0.26
5 13 -6 26.26 0.29
5 13 -4 47.39 0.51
5 13 -2 10.69 0.27
5 13 2 10.74 0.28
5 13 4 48.31 0.48
5 13 6 26.4 0.37
5 13 10 2.39 0.26
5 14 -5 31.16 0.37
5 14 -3 21.91 0.31
5 14 3 20.34 0.27
5 14 5 32.47 0.33
5 14 7 9.02 0.22
5 15 -2 2.24 0.17
5 15 0 3.04 0.2
5 15 2 2.07 0.19
6 0 -20 9.94 0.56
6 0 -18 10.01 0.29
6 0 -14 24.99 0.31
6 0 -12 85.24 0.74
6 0 -10 106.13 0.87
6 0 -8 40.87 0.31
6 0 -6 13.4 0.12
6 0 -4 84.79 0.62
6 0 -2 86.41 0.63
6 0 0 53.41 0.39
6 0 2 86.47 0.63
6 0 4 84.36 0.62
6 0 6 13.3 0.12
6 0 8 40.78 0.32
6 0 10 104.61 0.9
6 0 12 86.3 0.79
6 0 14 23.85 0.4
6 0 18 9.04 0.38
6 0 20 9.61 0.27
6 1 -17 11.49 0.36
6 1 -15 8.43 0.25
6 1 -13 13.31 0.25
6 1 -11 40.15 0.37
6 1 -9 30.99 0.29
6 1 -7 128.37 0.95
6 1 -5 86.88 0.65
6 1 -3 198.28 1.45
6 1 -1 195.56 1.42
6 1 1 194.13 1.41
6 1 3 198.19 1.44
6 1 5 87.1 0.65
6 1 7 128.53 0.95
6 1 9 31.8 0.26
6 1 11 39.12 0.38
6 1 13 13.88 0.34
6 1 15 9.34 0.37
6 1 17 10.9 0.4
6 2 -18 6.67 0.28
6 2 -16 27.86 0.34
6 2 -14 23.47 0.32
6 2 -12 3.48 0.18
6 2 -10 10.37 0.19
6 2 -8 88.47 0.67
6 2 -6 102.09 0.76
6 2 -4 12.7 0.11
6 2 -2 16.14 0.13
6 2 0 19.45 0.15
6 2 2 16.73 0.14
6 2 4 13.2 0.12
6 2 6 100.63 0.74
6 2 8 88.6 0.66
6 2 10 10.28 0.17
6 2 12 3.73 0.17
6 2 14 22.18 0.49
6 2 18 6.55 0.36
6 3 -17 5.5 0.32
6 3 -15 11.99 0.25
6 3 -13 7.56 0.22
6 3 -9 18.52 0.22
6 3 -7 21.41 0.19
6 3 -5 8.63 0.1
6 3 -3 32.08 0.24
6 3 -1 130.7 0.96
6 3 1 130.2 0.95
6 3 3 32.08 0.25
6 3 5 9.08 0.11
6 3 7 21.82 0.19
6 3 9 18.23 0.22
6 3 13 7.99 0.24
6 3 15 12.53 0.32
6 4 -14 4.48 0.19
6 4 -12 19.53 0.26
6 4 -10 8.39 0.19
6 4 -8 76.67 0.61
6 4 -6 122.49 0.94
6 4 -4 115.66 0.86
6 4 -2 183.37 1.34
6 4 0 95.79 0.7
6 4 2 183.88 1.34
6 4 4 116.12 0.86
6 4 6 123.04 0.93
6 4 8 76.66 0.64
6 4 10 8.41 0.22
6 4 12 20.32 0.28
6 4 14 4.41 0.22
6 5 -17 8.27 0.29
6 5 -15 5.74 0.23
6 5 -13 12.51 0.24
6 5 -11 37.34 0.39
6 5 -9 23.61 0.32
6 5 -7 81.75 0.73
6 5 -5 61.7 0.52
6 5 -3 156.17 1.15
6 5 -1 143.85 1.06
6 5 1 143.79 1.06
6 5 3 156.97 1.15
6 5 5 62.03 0.51
6 5 7 82.38 0.7
6 5 9 23.16 0.3
6 5 11 37.4 0.4
6 5 13 13.25 0.26
6 5 15 6.01 0.2
6 6 -16 4.45 0.25
6 6 -14 3.22 0.22
6 6 -8 5.69 0.23
6 6 -6 15.91 0.25
6 6 -4 28.88 0.26
6 6 -2 48.49 0.37
6 6 0 53.19 0.41
6 6 2 48.93 0.37
6 6 4 30.05 0.26
6 6 6 16.02 0.25
6 6 8 6.05 0.2
6 6 14 3.57 0.25
6 6 16 5.12 0.23
6 7 -15 9.15 0.27
6 7 -9 11.41 0.26
6 7 -7 39.23 0.41
6 7 -5 7.23 0.23
6 7 -3 9.8 0.17
6 7 -1 7.83 0.13
6 7 1 8.11 0.14
6 7 3 10.55 0.17
6 7 5 6.48 0.17
6 7 7 37.7 0.42
6 7 9 10.49 0.27
6 7 15 8.29 0.33
6 7 17 8.45 0.23
6 8 -16 9.36 0.24
6 8 -12 20.98 0.32
6 8 -10 15.41 0.3
6 8 -8 43.8 0.45
6 8 -6 61.54 0.58
6 8 -4 66.28 0.57
6 8 -2 128.41 1.01
6 8 0 93.2 0.75
6 8 2 127.45 1.04
6 8 4 65.72 0.57
6 8 6 62.39 0.58
6 8 8 43.84 0.48
6 8 10 15.32 0.3
6 8 12 21.46 0.29
6 8 16 8.21 0.29
6 9 -13 18.11 0.3
6 9 -11 39.2 0.42
6 9 -9 17.79 0.32
6 9 -7 3.18 0.35
6 9 -5 4.2 0.23
6 9 -3 32.27 0.33
6 9 -1 20.16 0.27
6 9 1 20.2 0.27
6 9 3 31.69 0.33
6 9 5 4.67 0.23
6 9 7 3.5 0.4
6 9 9 17.71 0.32
6 9 11 39.37 0.43
6 9 13 18.05 0.32
6 10 -14 1.68 0.17
6 10 -12 3.64 0.21
6 10 -10 6.53 0.27
6 10 -6 4.54 0.45
6 10 -4 11.44 0.22
6 10 -2 2.97 0.24
6 10 2 4.23 0.33
6 10 4 11.93 0.24
6 10 6 3.85 0.23
6 10 10 5.89 0.22
6 10 12 2.9 0.27
6 11 -13 16.95 0.29
6 11 -11 30.64 0.42
6 11 -9 10.36 0.27
6 11 -5 4.82 0.21
6 11 -3 29.21 0.42
6 11 -1 15.95 0.34
6 11 1 15.26 0.28
6 11 3 28.89 0.38
6 11 5 5.49 0.23
6 11 9 10.79 0.23
6 11 11 30.54 0.41
6 11 13 16.26 0.34
6 12 -8 21.05 0.29
6 12 -6 24.58 0.37
6 12 -4 6.38 0.22
6 12 -2 7.02 0.28
6 12 2 6.86 0.23
6 12 4 6.11 0.27
6 12 6 25.6 0.33
6 12 8 21.05 0.33
6 13 -7 9.24 0.25
6 13 -5 21.79 0.3
6 13 -3 11.32 0.21
6 13 3 11.7 0.24
6 13 5 21.99 0.31
6 13 7 9.27 0.19
6 13 9 3.52 0.16
6 14 -4 10.81 0.23
6 14 -2 2.11 0.24
6 14 2 1.96 0.17
6 14 4 10.78 0.18
6 14 6 14.19 0.24
7 0 -19 9.92 0.23
7 0 -17 4.94 0.22
7 0 -15 2.9 0.39
7 0 -13 3.52 0.25
7 0 -11 15.35 0.28
7 0 -9 52.97 0.45
7 0 -7 3.75 0.09
7 0 -5 26.31 0.22
7 0 -3 2.13 0.06
7 0 -1 56.64 0.42
7 0 1 56.44 0.42
7 0 3 2.17 0.07
7 0 5 25.92 0.21
7 0 7 3.73 0.09
7 0 9 53.17 0.46
7 0 11 14.56 0.28
7 0 13 3.31 0.32
7 0 17 5.23 0.25
7 0 19 10.4 0.27
7 1 -20 3.56 0.26
7 1 -18 4.39 0.28
7 1 -16 7.43 0.25
7 1 -14 6.13 0.24
7 1 -8 10.28 0.17
7 1 -6 20.74 0.18
7 1 -4 41.31 0.31
7 1 -2 85.88 0.63
7 1 0 115.92 0.85
7 1 2 86.02 0.64
7 1 4 41.96 0.33
7 1 6 20.9 0.19
7 1 8 10.08 0.2
7 1 14 6.08 0.35
7 1 16 6.66 0.29
7 1 18 5.61 0.34
7 2 -19 5.38 0.28
7 2 -17 2.77 0.27
7 2 -15 21.99 0.33
7 2 -13 28.81 0.39
7 2 -11 5.86 0.19
7 2 -9 18.44 0.23
7 2 -7 39.56 0.35
7 2 -5 188.01 1.38
7 2 -3 113.57 0.84
7 2 -1 1.69 0.08
7 2 1 2.03 0.08
7 2 3 113.07 0.84
7 2 5 185.69 1.38
7 2 7 39.41 0.36
7 2 9 19.04 0.26
7 2 11 5.44 0.21
7 2 13 29.21 0.37
7 2 15 22.82 0.43
7 2 19 5.19 0.26
7 3 -18 7.33 0.32
7 3 -16 6.19 0.28
7 3 -14 34.62 0.37
7 3 -12 13.67 0.24
7 3 -10 13.36 0.23
7 3 -8 15.99 0.21
7 3 -6 140.58 1.16
7 3 -4 246.37 1.83
7 3 -2 50.39 0.38
7 3 2 50.09 0.38
7 3 4 243.81 1.81
7 3 6 141.37 1.11
7 3 8 16.64 0.22
7 3 10 13.59 0.27
7 3 12 13.59 0.25
7 3 14 35.75 0.43
7 3 18 7.91 0.27
7 4 -17 10.05 0.33
7 4 -15 17.37 0.27
7 4 -13 10.9 0.27
7 4 -9 18.17 0.32
7 4 -7 42.29 0.45
7 4 -5 18.58 0.2
7 4 -3 2.56 0.09
7 4 -1 21.56 0.18
7 4 1 21.78 0.18
7 4 3 2.75 0.09
7 4 5 18.14 0.24
7 4 7 41.76 0.43
7 4 9 17.71 0.27
7 4 13 10.43 0.25
7 4 15 16.83 0.3
7 5 -16 2.03 0.26
7 5 -14 12.86 0.25
7 5 -12 46.95 0.48
7 5 -10 56.1 0.54
7 5 -8 17.68 0.33
7 5 -6 6.78 0.25
7 5 -4 34.61 0.32
7 5 0 19.82 0.17
7 5 4 34.93 0.32
7 5 6 7.15 0.19
7 5 8 17.63 0.27
7 5 10 57.57 0.57
7 5 12 48.09 0.55
7 5 14 13.15 0.31
7 6 -17 2.56 0.24
7 6 -15 3.21 0.26
7 6 -13 4.11 0.32
7 6 -11 13.49 0.28
7 6 -9 38.75 0.42
7 6 -7 3.22 0.24
7 6 -5 14.8 0.29
7 6 -1 55.86 0.45
7 6 1 54.9 0.44
7 6 5 14.6 0.3
7 6 7 3.99 0.22
7 6 9 39.4 0.45
7 6 11 13.55 0.29
7 6 13 3.86 0.31
7 6 15 2.33 0.3
7 7 -16 2.01 0.24
7 7 -14 15.77 0.29
7 7 -12 47.44 0.52
7 7 -10 55.83 0.67
7 7 -8 24.02 0.35
7 7 -6 5.77 0.24
7 7 -4 30.38 0.33
7 7 -2 44.06 0.38
7 7 0 43.39 0.37
7 7 2 44.69 0.39
7 7 4 30.41 0.31
7 7 6 5.24 0.21
7 7 8 22.98 0.32
7 7 10 55.3 0.62
7 7 12 48.3 0.55
7 7 14 16.6 0.35
7 7 16 1.72 0.18
7 8 -15 4.73 0.23
7 8 -13 3.87 0.3
7 8 -11 10.53 0.33
7 8 -9 9.52 0.28
7 8 -7 40.36 0.43
7 8 -5 22.94 0.33
7 8 -3 41.79 0.39
7 8 -1 37.23 0.35
7 8 1 37.32 0.34
7 8 3 42.41 0.4
7 8 5 23.3 0.34
7 8 7 39.26 0.42
7 8 9 10.13 0.29
7 8 11 9.84 0.29
7 8 13 4.11 0.35
7 8 15 3.95 0.21
7 9 -14 11.74 0.25
7 9 -12 3.46 0.22
7 9 -10 6.96 0.25
7 9 -8 26.63 0.36
7 9 -6 28.79 0.37
7 9 -4 6.46 0.23
7 9 -2 2.51 0.22
7 9 0 7.96 0.27
7 9 4 7.1 0.24
7 9 6 30.46 0.4
7 9 8 26.83 0.35
7 9 10 6.85 0.24
7 9 12 3.62 0.22
7 9 14 12.06 0.25
7 10 -13 2.96 0.18
7 10 -9 6.93 0.27
7 10 -7 8.76 0.52
7 10 -3 3.19 0.22
7 10 -1 23.86 0.32
7 10 1 22.81 0.36
7 10 3 3.3 0.26
7 10 7 8.96 0.28
7 10 9 8.16 0.23
7 10 13 3.07 0.3
7 11 -12 4.11 0.19
7 11 -10 2.28 0.25
7 11 -8 22.83 0.43
7 11 -6 35.42 0.44
7 11 -4 29.7 0.38
7 11 -2 37.16 0.43
7 11 0 20.28 0.32
7 11 2 36.26 0.47
7 11 4 29.89 0.35
7 11 6 35.06 0.39
7 11 8 22.71 0.31
7 11 12 3.44 0.29
7 12 -11 8.41 0.24
7 12 -9 5.34 0.2
7 12 -7 12.73 0.29
7 12 -5 11.08 0.26
7 12 -3 26.74 0.35
7 12 -1 24.55 0.36
7 12 1 24.24 0.3
7 12 3 26.48 0.37
7 12 5 10.58 0.23
7 12 7 13.26 0.23
7 12 9 6.01 0.22
7 12 11 7.86 0.26
7 13 -6 4.62 0.17
7 13 -4 9.54 0.18
7 13 -2 9.64 0.26
7 13 0 8.68 0.23
7 13 2 10.74 0.32
7 13 4 10.22 0.22
7 13 6 4.7 0.15
7 14 3 2.32 0.18
8 0 -18 5.08 0.16
8 0 -14 20.11 0.31
8 0 -12 74.82 0.69
8 0 -10 73.5 0.62
8 0 -8 23.2 0.24
8 0 -6 4.4 0.14
8 0 -4 48.99 0.39
8 0 -2 76.63 0.59
8 0 0 45.76 0.35
8 0 2 77.27 0.58
8 0 4 48.88 0.4
8 0 6 5.22 0.16
8 0 8 21.87 0.25
8 0 10 71.9 0.69
8 0 12 78.96 0.9
8 0 14 20.48 0.31
8 0 18 4.88 0.22
8 1 -17 13.36 0.3
8 1 -15 15.27 0.26
8 1 -13 3.56 0.47
8 1 -9 18.64 0.24
8 1 -7 74.63 0.62
8 1 -5 20.3 0.19
8 1 -3 16.33 0.15
8 1 -1 11.09 0.11
8 1 1 10.99 0.11
8 1 3 16.67 0.16
8 1 5 20.03 0.22
8 1 7 74.77 0.65
8 1 9 19.38 0.27
8 1 13 2.75 0.31
8 1 15 14.75 0.32
8 1 17 13.73 0.24
8 2 -16 13.41 0.28
8 2 -14 29.79 0.35
8 2 -12 13.01 0.26
8 2 -10 14.65 0.25
8 2 -8 38.59 0.37
8 2 -6 101.46 0.78
8 2 -4 115.88 1.06
8 2 -2 16.98 0.15
8 2 2 17.39 0.16
8 2 4 111.83 1.05
8 2 6 99.44 0.8
8 2 8 39.2 0.43
8 2 10 14.58 0.28
8 2 12 13.23 0.3
8 2 18 5.03 0.31
8 3 -17 5.23 0.27
8 3 -15 20.34 0.35
8 3 -13 26.75 0.35
8 3 -11 7.84 0.19
8 3 -9 22.45 0.3
8 3 -7 45.97 0.46
8 3 -5 134.22 1.04
8 3 -3 71.84 0.56
8 3 3 71.74 0.56
8 3 5 132.92 1.02
8 3 7 47.36 0.42
8 3 9 24.52 0.31
8 3 11 7.54 0.28
8 3 13 25.86 0.4
8 4 -16 7.73 0.24
8 4 -14 5.53 0.22
8 4 -10 3.23 0.39
8 4 -8 22.79 0.32
8 4 -6 19.06 0.31
8 4 -4 6.19 0.13
8 4 -2 32.71 0.29
8 4 0 47.35 0.39
8 4 2 33.64 0.29
8 4 4 5.59 0.13
8 4 6 19.51 0.25
8 4 8 22.68 0.31
8 4 10 2.83 0.26
8 4 14 6.44 0.4
8 5 -13 7.51 0.26
8 5 -11 20.29 0.34
8 5 -9 23.63 0.33
8 5 -5 14.72 0.27
8 5 -3 15.34 0.21
8 5 -1 21.16 0.21
8 5 1 20.71 0.21
8 5 3 14.86 0.2
8 5 5 15.61 0.22
8 5 9 22.97 0.3
8 5 11 20.01 0.31
8 5 13 8.03 0.24
8 6 -14 7.68 0.28
8 6 -10 70.28 0.66
8 6 -8 82.79 0.77
8 6 -6 11.7 0.28
8 6 -4 9.5 0.24
8 6 -2 146.21 1.19
8 6 0 329.62 2.55
8 6 2 145.16 1.17
8 6 4 9.62 0.19
8 6 6 12.74 0.24
8 6 8 82 0.73
8 6 10 69.71 0.65
8 6 14 8.3 0.3
8 7 -11 5.58 0.25
8 7 -9 18.12 0.38
8 7 -5 9.57 0.25
8 7 -3 2.45 0.21
8 7 -1 14.78 0.21
8 7 1 15.33 0.21
8 7 5 9.75 0.22
8 7 9 19.05 0.35
8 7 11 5.73 0.25
8 8 -14 3.69 0.2
8 8 -10 2.99 0.4
8 8 -8 5.49 0.35
8 8 -6 5 0.31
8 8 -4 10.38 0.27
8 8 -2 29.51 0.29
8 8 0 43.3 0.4
8 8 2 28.81 0.3
8 8 4 10.66 0.24
8 8 6 5.13 0.25
8 8 8 5.12 0.27
8 8 10 3.12 0.38
8 8 14 3.95 0.22
8 9 -13 9.96 0.23
8 9 -9 3 0.29
8 9 -7 11.08 0.34
8 9 -5 69.93 0.69
8 9 -3 41.47 0.43
8 9 3 41.24 0.46
8 9 5 70.08 0.66
8 9 7 10.94 0.26
8 9 9 3.82 0.28
8 9 13 9.46 0.21
8 10 -12 4.72 0.2
8 10 -10 3.53 0.2
8 10 -8 6.72 0.23
8 10 -6 43.13 0.62
8 10 -4 69.64 0.68
8 10 -2 16.38 0.3
8 10 2 15.49 0.3
8 10 4 69.87 0.63
8 10 6 43.05 0.46
8 10 8 6.26 0.22
8 10 10 2.92 0.21
8 10 12 4.92 0.17
8 11 -9 3.02 0.26
8 11 -7 5.88 0.26
8 11 -1 4.97 0.27
8 11 1 4.99 0.23
8 11 7 6.08 0.2
8 11 9 3.54 0.3
8 12 -8 7.07 0.2
8 12 -6 4.02 0.2
8 12 -2 4.84 0.22
8 12 0 3.6 0.23
8 12 2 4.22 0.29
8 12 4 8.15 0.25
8 12 6 3.9 0.16
8 12 8 5.76 0.19
8 13 -1 14.15 0.27
8 13 1 14.16 0.29
9 0 -17 9.34 0.23
9 0 -15 9 0.26
9 0 -13 4.81 0.21
9 0 -11 10.9 0.24
9 0 -9 15.62 0.22
9 0 -7 75.71 0.61
9 0 -5 53.16 0.45
9 0 -3 75.02 0.61
9 0 -1 57.73 0.49
9 0 1 59.26 0.48
9 0 3 74.94 0.61
9 0 5 52.68 0.46
9 0 7 74.77 0.66
9 0 9 15.44 0.27
9 0 11 11.12 0.29
9 0 13 5.3 0.37
9 0 15 9.59 0.37
9 0 17 8.18 0.25
9 1 -16 9.47 0.24
9 1 -12 26.01 0.32
9 1 -10 18.4 0.25
9 1 -8 48.67 0.45
9 1 -6 70.09 0.59
9 1 -4 77.72 0.64
9 1 -2 147.65 1.16
9 1 0 101.8 0.83
9 1 2 146.52 1.13
9 1 4 76.75 0.65
9 1 6 69.51 0.61
9 1 8 47.14 0.51
9 1 10 19.29 0.33
9 1 12 26.26 0.58
9 1 16 10.3 0.33
9 2 -17 3.61 0.2
9 2 -15 4.7 0.22
9 2 -13 2.68 0.27
9 2 -7 13.4 0.25
9 2 -5 13.65 0.2
9 2 -3 28.52 0.28
9 2 -1 35.12 0.32
9 2 1 35.18 0.32
9 2 3 29.28 0.3
9 2 5 13.99 0.2
9 2 7 13.59 0.29
9 2 17 4.8 0.21
9 3 -16 8.9 0.21
9 3 -14 4.27 0.2
9 3 -8 21.95 0.32
9 3 -6 20.75 0.31
9 3 -2 11.63 0.17
9 3 0 4.79 0.12
9 3 2 11.65 0.17
9 3 6 20.47 0.28
9 3 8 22.32 0.46
9 3 14 4.01 0.22
9 4 -15 5.45 0.2
9 4 -13 6.63 0.27
9 4 -11 20.37 0.33
9 4 -9 17.69 0.3
9 4 -7 73.4 0.76
9 4 -5 51.38 0.49
9 4 -3 106.88 0.87
9 4 -1 103.82 0.83
9 4 1 102.86 0.82
9 4 3 107.43 0.86
9 4 5 52.33 0.51
9 4 7 74.4 0.7
9 4 9 18.39 0.3
9 4 11 21.37 0.97
9 4 13 6.82 0.29
9 4 15 5.01 0.25
9 4 17 7.35 0.23
9 5 -14 8.37 0.25
9 5 -12 42.95 0.45
9 5 -10 37.06 0.5
9 5 -8 8.06 0.28
9 5 -4 23.1 0.3
9 5 -2 47.4 0.41
9 5 0 18.27 0.21
9 5 2 46.53 0.41
9 5 4 23.57 0.28
9 5 8 8.69 0.27
9 5 10 37.26 0.45
9 5 12 43.38 0.51
9 5 14 8.13 0.28
9 6 -11 4.54 0.29
9 6 -9 7.44 0.28
9 6 -5 11.72 0.31
9 6 -3 7.17 0.23
9 6 3 7.32 0.2
9 6 5 11.58 0.25
9 6 9 5.4 0.28
9 6 11 4.69 0.24
9 7 -14 10.02 0.23
9 7 -12 38.92 0.42
9 7 -10 30.39 0.39
9 7 -8 5.99 0.31
9 7 -4 21.83 0.35
9 7 -2 35.83 0.36
9 7 0 10.47 0.17
9 7 2 35.07 0.36
9 7 4 22.74 0.3
9 7 8 7.49 0.29
9 7 10 31.14 0.4
9 7 12 39.85 0.4
9 7 14 8.54 0.2
9 8 -13 2.57 0.25
9 8 -9 11.24 0.26
9 8 -7 38.72 0.44
9 8 -5 15.59 0.28
9 8 -3 10.58 0.28
9 8 -1 5.21 0.17
9 8 1 5.29 0.19
9 8 3 10.27 0.24
9 8 5 15.32 0.27
9 8 7 38.11 0.41
9 8 9 11.05 0.26
9 8 13 1.74 0.25
9 9 -12 4.35 0.19
9 9 -10 4.45 0.24
9 9 -8 13.13 0.26
9 9 -6 32.56 0.4
9 9 -4 33.53 0.39
9 9 -2 4.72 0.22
9 9 2 4.65 0.22
9 9 4 32.91 0.38
9 9 6 31.15 0.37
9 9 8 13.45 0.25
9 9 10 4.99 0.25
9 9 12 5.36 0.17
9 10 -11 3.66 0.18
9 10 -9 10.29 0.29
9 10 -7 16.76 0.29
9 10 -5 26 0.51
9 10 -3 12.36 0.25
9 10 3 12.86 0.22
9 10 5 27.04 0.35
9 10 7 16.71 0.26
9 10 9 9.48 0.22
9 10 11 2.94 0.19
9 11 -8 7.15 0.25
9 11 -6 6.22 0.31
9 11 -2 7.36 0.29
9 11 0 6.93 0.24
9 11 2 7.53 0.24
9 11 4 2.65 0.23
9 11 6 6.63 0.21
9 11 8 7.23 0.21
9 12 -3 3.99 0.26
9 12 -1 7.24 0.32
9 12 1 7.32 0.2
9 12 3 4.38 0.21
9 12 5 3.22 0.29
9 13 0 55.95 0.59
9 13 2 27.12 0.33
9 13 4 4.25 0.22
10 0 -16 11.69 0.32
10 0 -14 14.33 0.26
10 0 -12 4.61 0.21
10 0 -10 5.82 0.19
10 0 -8 26.66 0.31
10 0 -6 28.89 0.31
10 0 -4 7.29 0.2
10 0 -2 4.02 0.19
10 0 0 14.96 0.25
10 0 2 4.37 0.18
10 0 4 6.44 0.21
10 0 6 29.25 0.34
10 0 8 26.63 0.31
10 0 10 6.92 0.27
10 0 12 4.04 0.37
10 1 -17 3.33 0.25
10 1 -15 2.42 0.2
10 1 -13 20.9 0.28
10 1 -11 44.13 0.42
10 1 -9 23.4 0.3
10 1 -7 2.89 0.28
10 1 -5 8.98 0.22
10 1 -3 29.05 0.32
10 1 -1 16.45 0.26
10 1 1 17.1 0.25
10 1 3 29.67 0.32
10 1 5 8.86 0.2
10 1 7 2.75 0.25
10 1 9 23.2 0.35
10 1 11 42.68 0.48
10 1 13 20.52 0.39
10 1 17 2.19 0.22
10 2 -14 4.92 0.2
10 2 -12 6.13 0.21
10 2 -10 28.5 0.36
10 2 -8 16.06 0.3
10 2 -6 4.15 0.22
10 2 -4 11.01 0.19
10 2 -2 12.66 0.2
10 2 0 53.01 0.48
10 2 2 12.05 0.21
10 2 4 11.02 0.2
10 2 6 3.58 0.25
10 2 8 17.21 0.32
10 2 10 28.01 0.34
10 2 12 5.64 0.27
10 2 14 6.08 0.29
10 3 -15 5.06 0.24
10 3 -13 24.41 0.32
10 3 -11 47.07 0.48
10 3 -9 38.78 0.42
10 3 -7 7.69 0.27
10 3 -5 16.6 0.27
10 3 -3 30.14 0.3
10 3 -1 33.82 0.33
10 3 1 33.7 0.32
10 3 3 29.13 0.3
10 3 5 15.69 0.27
10 3 7 7.07 0.29
10 3 9 39.16 0.44
10 3 11 48.23 0.56
10 3 13 24.25 0.36
10 3 15 5.25 0.27
10 4 -16 4.42 0.22
10 4 -12 12.62 0.28
10 4 -10 9.36 0.29
10 4 -8 24.31 0.36
10 4 -6 29.31 0.38
10 4 -4 25.52 0.31
10 4 -2 54.89 0.5
10 4 0 34.18 0.35
10 4 2 55.6 0.49
10 4 4 25.38 0.31
10 4 6 30.6 0.38
10 4 8 22.9 0.33
10 4 10 10.04 0.31
10 4 12 12.14 0.29
10 5 -15 13.58 0.2
10 5 -13 7.26 0.37
10 5 -9 18.85 0.33
10 5 -7 42.39 0.48
10 5 -5 21.86 0.33
10 5 -3 3.01 0.27
10 5 -1 4.98 0.16
10 5 1 4.29 0.16
10 5 3 2.91 0.29
10 5 5 22.87 0.33
10 5 7 42.68 0.43
10 5 9 17.61 0.3
10 5 13 7.2 0.34
10 5 15 14.77 0.33
10 6 -14 5.18 0.21
10 6 -10 3.75 0.28
10 6 -8 8.2 0.28
10 6 -6 3.76 0.27
10 6 -2 16.96 0.28
10 6 0 38.43 0.37
10 6 2 16.63 0.25
10 6 6 3.5 0.42
10 6 8 8.41 0.24
10 6 10 4.44 0.25
10 6 14 5.39 0.18
10 7 -13 3.26 0.2
10 7 -11 2.83 0.25
10 7 -9 9.32 0.29
10 7 -7 42.54 0.47
10 7 -5 34.91 0.4
10 7 -3 40.29 0.45
10 7 -1 26.31 0.29
10 7 1 27.41 0.32
10 7 3 40.73 0.4
10 7 5 34.23 0.36
10 7 7 43.11 0.45
10 7 9 9.64 0.27
10 7 11 3.01 0.22
10 7 13 2.22 0.16
10 8 -12 10.76 0.22
10 8 -10 8.5 0.26
10 8 -8 14.41 0.28
10 8 -6 21.62 0.33
10 8 -4 27.45 0.36
10 8 -2 49.29 0.47
10 8 0 34 0.42
10 8 2 49.44 0.46
10 8 4 26.79 0.32
10 8 6 21.98 0.3
10 8 8 14.95 0.27
10 8 10 8.89 0.25
10 8 12 9.98 0.18
10 9 -7 3.75 0.26
10 9 -5 8.11 0.23
10 9 -3 13.21 0.25
10 9 -1 12.18 0.23
10 9 1 12.3 0.25
10 9 3 13.08 0.23
10 9 5 8.67 0.24
10 9 7 3.58 0.25
10 10 -8 6.38 0.19
10 10 -6 5.42 0.19
10 10 -2 3.35 0.25
10 10 2 4.26 0.23
10 10 6 5.6 0.19
10 10 8 6.88 0.22
10 11 -7 17.18 0.33
10 11 -5 14.78 0.27
10 11 1 34.03 0.35
10 11 3 30.91 0.34
10 11 5 14.43 0.2
10 11 7 17.24 0.23
10 12 0 2.25 0.27
10 12 2 8.52 0.22
10 12 4 4.11 0.16
11 0 -15 6.38 0.19
11 0 -13 4.22 0.28
11 0 -9 10.5 0.25
11 0 -7 18.25 0.26
11 0 -5 3.38 0.23
11 0 -3 6.3 0.2
11 0 -1 25.93 0.35
11 0 1 27.27 0.36
11 0 3 6.29 0.2
11 0 5 3.16 0.25
11 0 7 16.99 0.27
11 0 9 10.7 0.31
11 0 13 3.8 0.28
11 0 15 6.49 0.23
11 1 -14 2.08 0.23
11 1 -12 8.14 0.2
11 1 -10 13.47 0.23
11 1 -8 3.71 0.26
11 1 -6 3.97 0.22
11 1 -4 13.62 0.26
11 1 -2 6.4 0.27
11 1 0 5.62 0.2
11 1 2 6.39 0.22
11 1 4 13.85 0.27
11 1 6 3.12 0.28
11 1 8 3.66 0.25
11 1 10 12.34 0.33
11 1 12 8 0.26
11 1 14 3.22 0.24
11 2 -15 3.79 0.23
11 2 -13 2.92 0.22
11 2 -11 18.14 0.29
11 2 -9 73.84 0.69
11 2 -7 32.67 0.37
11 2 -5 3.64 0.22
11 2 -3 37.02 0.38
11 2 -1 194.48 1.76
11 2 1 196.88 1.65
11 2 3 37.05 0.37
11 2 5 3.71 0.19
11 2 7 32.92 0.4
11 2 9 71.67 0.68
11 2 11 18.58 0.44
11 2 13 2.86 0.29
11 2 15 3.32 0.2
11 3 -14 1.97 0.23
11 3 -10 16.51 0.29
11 3 -8 13.71 0.27
11 3 -4 6.34 0.19
11 3 -2 4.98 0.22
11 3 0 32.73 0.39
11 3 2 5.49 0.22
11 3 4 5.58 0.2
11 3 8 12.96 0.37
11 3 10 14.46 0.34
11 4 -15 2.76 0.2
11 4 -7 4.36 0.28
11 4 -5 9.99 0.4
11 4 -3 21.11 0.26
11 4 -1 32.72 0.35
11 4 1 32.1 0.34
11 4 3 20.73 0.27
11 4 5 11.36 0.26
11 4 7 4.91 0.27
11 5 -14 10.61 0.21
11 5 -12 4.16 0.26
11 5 -10 3.05 0.26
11 5 -8 3.14 0.3
11 5 -6 32.69 0.4
11 5 -4 56.6 0.53
11 5 -2 8.71 0.2
11 5 2 9.94 0.2
11 5 4 56.23 0.51
11 5 6 33.5 0.43
11 5 10 3.52 0.26
11 5 12 4.78 0.26
11 5 14 11.53 0.28
11 6 -13 10.7 0.19
11 6 -9 4.85 0.27
11 6 -7 17.62 0.29
11 6 -5 81.51 0.94
11 6 -3 52.35 0.49
11 6 -1 4.36 0.22
11 6 1 3.48 0.2
11 6 3 52.69 0.49
11 6 5 80.4 0.71
11 6 7 17.58 0.28
11 6 9 4.74 0.29
11 6 13 10 0.21
11 7 -12 3 0.28
11 7 -8 7.78 0.27
11 7 -6 7.94 0.26
11 7 -2 2.74 0.29
11 7 0 7.87 0.2
11 7 2 3.14 0.25
11 7 6 7.74 0.27
11 7 8 8.29 0.24
11 7 12 2.65 0.28
11 8 -11 15.22 0.24
11 8 -9 10.9 0.22
11 8 -7 2.7 0.34
11 8 -5 6 0.23
11 8 -3 8.84 0.26
11 8 -1 3.57 0.2
11 8 1 3.71 0.2
11 8 3 8.51 0.21
11 8 5 6.71 0.2
11 8 7 3.16 0.24
11 8 9 11.33 0.21
11 8 11 15.45 0.27
11 9 -10 9.87 0.18
11 9 -8 7.39 0.29
11 9 -2 5.47 0.25
11 9 0 26.06 0.31
11 9 2 6.75 0.19
11 9 8 7.24 0.2
11 9 10 9.85 0.2
11 10 -7 3.54 0.28
11 10 -5 4.9 0.19
11 10 -3 10.06 0.21
11 10 -1 12.82 0.26
11 10 1 13.63 0.23
11 10 3 10.28 0.21
11 10 5 4.64 0.16
11 10 7 3.69 0.17
11 11 2 8.73 0.23
11 11 4 4.56 0.16
12 0 -12 8.41 0.35
12 0 -10 5.23 0.2
12 0 -8 27.7 0.35
12 0 -6 42.41 0.45
12 0 -4 39.62 0.44
12 0 -2 60.67 0.66
12 0 0 41.07 0.43
12 0 2 63.87 0.61
12 0 4 38.37 0.44
12 0 6 41.78 0.43
12 0 8 28.39 0.36
12 0 10 4.68 0.27
12 1 -13 17.23 0.26
12 1 -11 33 0.36
12 1 -9 12.07 0.26
12 1 -7 3.5 0.37
12 1 -5 4.13 0.26
12 1 -3 32.88 0.42
12 1 -1 20.32 0.37
12 1 1 19.12 0.34
12 1 3 32.19 0.43
12 1 5 5.59 0.28
12 1 7 3.35 0.32
12 1 9 11.03 0.29
12 1 11 32.54 0.55
12 1 13 17.47 0.26
12 2 -10 5.35 0.22
12 2 -6 3.14 0.26
12 2 -4 9.06 0.24
12 2 4 7.73 0.22
12 2 10 4.94 0.26
12 3 -13 18.9 0.23
12 3 -11 32.39 0.33
12 3 -9 15.94 0.26
12 3 -7 3.63 0.37
12 3 -5 6.25 0.22
12 3 -3 25.42 0.37
12 3 -1 15.61 0.32
12 3 1 15.53 0.3
12 3 3 25.96 0.34
12 3 5 6.48 0.26
12 3 7 2.8 0.36
12 3 9 16.16 0.38
12 3 11 31.97 0.4
12 3 13 20.51 0.28
12 4 -8 19.66 0.28
12 4 -6 21.19 0.39
12 4 -4 3.64 0.21
12 4 -2 10.82 0.38
12 4 2 9.98 0.27
12 4 4 3.99 0.28
12 4 6 21.37 0.31
12 4 8 20.8 0.31
12 5 -13 8.35 0.2
12 5 -11 3.32 0.18
12 5 -9 11.18 0.24
12 5 -7 22.75 0.34
12 5 -5 35.64 0.41
12 5 -3 16.42 0.27
12 5 3 15.77 0.27
12 5 5 34.37 0.4
12 5 7 22.06 0.32
12 5 9 10.62 0.27
12 5 11 3.33 0.24
12 6 -12 4.32 0.18
12 6 -10 4.6 0.21
12 6 -8 10.31 0.25
12 6 -6 23.41 0.34
12 6 -4 27.5 0.33
12 6 -2 4.73 0.24
12 6 2 4.57 0.21
12 6 4 29.33 0.32
12 6 6 21.4 0.31
12 6 8 9.95 0.28
12 6 10 5.15 0.47
12 6 12 5.43 0.21
12 7 -9 4.29 0.21
12 7 -7 11.12 0.24
12 7 -5 2.99 0.28
12 7 -3 4.32 0.23
12 7 -1 9.65 0.23
12 7 1 9.34 0.23
12 7 3 3.61 0.19
12 7 5 3.11 0.17
12 7 7 11.36 0.21
12 7 9 3.84 0.24
12 8 -10 8.19 0.18
12 8 -8 2.42 0.19
12 8 -4 6.01 0.22
12 8 -2 5.14 0.32
12 8 0 5.63 0.2
12 8 2 5.17 0.19
12 8 4 5.35 0.18
12 8 8 2.58 0.16
12 8 10 8.38 0.18
12 9 -7 10.84 0.2
12 9 -3 14.32 0.28
12 9 -1 64.89 0.6
12 9 1 64.36 0.61
12 9 3 14.6 0.21
12 9 5 3.15 0.2
12 9 7 11.62 0.19
12 10 4 2.38 0.23
13 0 -13 3.28 0.17
13 0 -11 9.31 0.28
13 0 -9 6.42 0.28
13 0 -7 16.08 0.24
13 0 -5 10.34 0.23
13 0 -3 27.02 0.48
13 0 -1 25.79 0.37
13 0 1 25.66 0.42
13 0 3 26.07 0.45
13 0 5 10.22 0.29
13 0 7 15.97 0.26
13 0 9 6.46 0.28
13 0 11 9.14 0.25
13 1 -10 3.46 0.2
13 1 -8 22.41 0.32
13 1 -6 24.95 0.35
13 1 -4 5.66 0.31
13 1 -2 3.75 0.37
13 1 2 3.34 0.31
13 1 4 5.52 0.33
13 1 6 25.06 0.32
13 1 8 22.76 0.39
13 1 10 4.2 0.23
13 2 -9 5.33 0.22
13 2 -3 4.21 0.28
13 2 -1 23.23 0.48
13 2 1 24.85 0.35
13 2 3 5.06 0.27
13 2 9 5.1 0.22
13 3 -12 2.34 0.24
13 3 -8 17.22 0.26
13 3 -6 25.73 0.34
13 3 -4 19.16 0.32
13 3 -2 21.58 0.37
13 3 0 10.57 0.32
13 3 2 22.96 0.35
13 3 4 20.38 0.34
13 3 6 27.48 0.37
13 3 8 17.87 0.28
13 4 -11 9.92 0.22
13 4 -9 6.7 0.19
13 4 -7 22.4 0.28
13 4 -5 19.58 0.35
13 4 -3 38.72 0.45
13 4 -1 37.8 0.47
13 4 1 38.13 0.41
13 4 3 38.74 0.42
13 4 5 18.98 0.31
13 4 7 21.77 0.28
13 4 9 7.38 0.25
13 4 11 9.42 0.22
13 5 -6 4.75 0.2
13 5 -4 8.42 0.27
13 5 -2 10.86 0.22
13 5 0 7.86 0.28
13 5 2 10.28 0.21
13 5 4 7.42 0.24
13 5 6 5.04 0.2
13 6 -9 2.36 0.24
13 6 -7 6.51 0.21
13 6 -5 2.11 0.21
13 6 -3 3.11 0.28
13 6 -1 2.33 0.29
13 6 1 2.35 0.23
13 6 3 2.59 0.33
13 6 5 2.1 0.27
13 6 7 6.09 0.2
13 7 -8 12.64 0.22
13 7 -6 17.81 0.32
13 7 -4 19.18 0.25
13 7 -2 35.81 0.37
13 7 0 29.48 0.34
13 7 2 36.52 0.35
13 7 4 19.06 0.22
13 7 6 16.78 0.32
13 7 8 11.73 0.25
13 8 -5 1.96 0.24
13 8 -3 11.09 0.23
13 8 -1 7.66 0.21
13 8 1 7.97 0.19
13 8 3 10.82 0.2
14 0 -6 5.24 0.19
14 0 -4 11.16 0.25
14 0 -2 14.08 0.34
14 0 2 15.48 0.33
14 0 4 10.68 0.31
14 0 6 5.61 0.19
14 1 -9 2.11 0.18
14 1 -7 6.73 0.19
14 1 -5 25.41 0.32
14 1 -3 13.81 0.32
14 1 5 24.36 0.38
14 1 7 6.51 0.19
14 1 9 2.52 0.2
14 2 -10 2.04 0.18
14 2 -8 2.37 0.2
14 2 -6 29.5 0.31
14 2 -4 52.31 0.68
14 2 -2 14.37 0.39
14 2 2 14.26 0.32
14 2 4 52.61 0.55
14 2 6 29.69 0.37
14 2 8 2.52 0.23
14 2 10 1.94 0.2
14 3 -9 4.64 0.17
14 3 -7 7.29 0.22
14 3 -5 4.9 0.2
14 3 -1 3.27 0.29
14 3 1 4.35 0.37
14 3 5 5.39 0.33
14 3 7 7.69 0.21
14 3 9 4.2 0.22
14 4 -8 3.61 0.17
14 4 -6 2.55 0.28
14 4 -4 6.8 0.24
14 4 -2 4.09 0.22
14 4 2 4.92 0.21
14 4 4 6.27 0.26
14 4 6 2.61 0.23
14 4 8 3.78 0.21
14 5 -5 2.25 0.18
14 5 -1 12.76 0.2
14 5 1 12.56 0.21
14 5 5 3.16 0.2
14 5 7 1.97 0.19
14 6 -6 2.67 0.27
14 6 -4 6.88 0.29
14 6 -2 8.73 0.21
14 6 0 11.32 0.21
14 6 2 8.55 0.22
14 6 4 6.58 0.25
14 6 6 3.21 0.22
14 7 -3 7.69 0.21
14 7 3 7.65 0.21
15 0 -5 1.92 0.2
15 0 -3 3.98 0.22
15 1 -4 13.76 0.23
15 1 -2 1.93 0.26
15 1 4 13.36 0.26
15 1 6 17.07 0.31
15 2 -7 7.3 0.25
15 2 -5 20.75 0.27
15 2 -3 12.11 0.23
15 2 3 12.29 0.3
15 2 5 20.85 0.28
15 2 7 7.74 0.18
15 3 -6 4.66 0.2
15 3 -2 5.19 0.2
15 3 2 4.3 0.21
15 3 6 4.48 0.22
15 4 -5 2.36 0.17
15 4 -3 4.21 0.26
15 4 -1 1.93 0.21
15 4 5 2.69 0.25
15 5 -4 3.73 0.2
15 5 -2 27.63 0.53
15 5 0 57.66 0.6
