#------------------------------------------------------------------------------
#$Date: 2017-10-13 08:28:26 +0300 (Fri, 13 Oct 2017) $
#$Revision: 201972 $
#$URL: file:///home/coder/svn-repositories/cod/cif/2/10/04/2100437.cif $
#------------------------------------------------------------------------------
#
# This file is available in the Crystallography Open Database (COD),
# http://www.crystallography.net/. The original data for this entry
# were provided by IUCr Journals, http://journals.iucr.org/.
#
# The file may be used within the scientific community so long as
# proper attribution is given to the journal article from which the
# data were obtained.
#
data_2100437
loop_
_publ_author_name
'Moggach, Stephen A.'
'Allan, David R.'
'Parsons, Simon'
'Sawyer, Lindsay'
_publ_contact_author_name        'Stephen A. Moggach'
_publ_section_title
;
 Effect of pressure on the crystal structure of \a-glycylglycine to
 4.7GPa; application of Hirshfeld surfaces to analyse contacts on
 increasing pressure
;
_journal_coeditor_code           GP5004
_journal_date_accepted           2005-12-15
_journal_date_recd_electronic    2005-11-14
_journal_issue                   2
_journal_name_full               'Acta Crystallographica Section B'
_journal_page_first              310
_journal_page_last               320
_journal_paper_category          FA
_journal_paper_doi               10.1107/S0108768105042072
_journal_volume                  62
_journal_year                    2006
_chemical_formula_moiety         'C4 H8 N2 O3'
_chemical_formula_sum            'C4 H8 N2 O3'
_chemical_formula_weight         132.12
_space_group_IT_number           14
_symmetry_cell_setting           monoclinic
_symmetry_space_group_name_Hall  '-P 2ybc'
_symmetry_space_group_name_H-M   'P 1 21/c 1'
_atom_sites_solution_hydrogens   geom
_atom_sites_solution_primary     'Kvick et al., (1979) '
_audit_creation_method           CRYSTALS_ver_12.82
_cell_angle_alpha                90
_cell_angle_beta                 101.51(3)
_cell_angle_gamma                90
_cell_formula_units_Z            4
_cell_length_a                   7.3100(15)
_cell_length_b                   9.232(2)
_cell_length_c                   7.550(3)
_cell_measurement_reflns_used    1211
_cell_measurement_temperature    293
_cell_measurement_theta_max      53
_cell_measurement_theta_min      6
_cell_volume                     499.3(3)
_computing_cell_refinement       'SAINT (Siemens ,1995)'
_computing_data_collection       'SMART (Siemens, 1993)'
_computing_data_reduction        'SAINT (Siemens ,1995)'
_computing_molecular_graphics    'CAMERON (Watkin et al., 1996)'
_computing_publication_material  'CRYSTALS (Betteridge et al., 2003)'
_computing_structure_refinement  'CRYSTALS (Betteridge et al., 2003)'
_computing_structure_solution    'USER DEFINED STRUCTURE SOLUTION'
_diffrn_ambient_temperature      293
_diffrn_measured_fraction_theta_full 0.458
_diffrn_measured_fraction_theta_max 0.403
_diffrn_measurement_device_type  'Bruker APEX II'
_diffrn_measurement_method       \w
_diffrn_radiation_monochromator  graphite
_diffrn_radiation_type           'Mo K\a'
_diffrn_radiation_wavelength     0.71073
_diffrn_reflns_av_R_equivalents  0.048
_diffrn_reflns_limit_h_max       8
_diffrn_reflns_limit_h_min       -9
_diffrn_reflns_limit_k_max       10
_diffrn_reflns_limit_k_min       -10
_diffrn_reflns_limit_l_max       5
_diffrn_reflns_limit_l_min       -5
_diffrn_reflns_number            2678
_diffrn_reflns_theta_full        25.024
_diffrn_reflns_theta_max         26.908
_diffrn_reflns_theta_min         2.844
_diffrn_standards_number         0
_exptl_absorpt_coefficient_mu    0.150
_exptl_absorpt_correction_T_max  0.99
_exptl_absorpt_correction_T_min  0.84
_exptl_absorpt_correction_type   multi-scan
_exptl_absorpt_process_details   'SADABS (Siemens, 1996)'
_exptl_crystal_colour            colourless
_exptl_crystal_density_diffrn    1.758
_exptl_crystal_description       block
_exptl_crystal_F_000             280
_exptl_crystal_size_max          0.20
_exptl_crystal_size_mid          0.20
_exptl_crystal_size_min          0.10
_refine_diff_density_max         0.31
_refine_diff_density_min         -0.30
_refine_ls_extinction_method     None
_refine_ls_goodness_of_fit_ref   1.0429
_refine_ls_hydrogen_treatment    noref
_refine_ls_matrix_type           full
_refine_ls_number_parameters     37
_refine_ls_number_reflns         419
_refine_ls_number_restraints     17
_refine_ls_R_factor_all          0.0837
_refine_ls_R_factor_gt           0.0677
_refine_ls_shift/su_max          0.000042
_refine_ls_structure_factor_coef Fsqd
_refine_ls_weighting_details
;
 w=1/[\s^2^(F^2^) + ( 0.05P)^2^ + 2.18P]
where P=(max(Fo^2^,0) + 2Fc^2^)/3
;
_refine_ls_weighting_scheme      calc
_refine_ls_wR_factor_all         0.1628
_refine_ls_wR_factor_gt          0.1503
_refine_ls_wR_factor_ref         0.1628
_reflns_number_gt                332
_reflns_number_total             435
_reflns_threshold_expression     I>2.00u(I)
_cod_data_source_file            gp5004.cif
_cod_data_source_block           glyg37
_cod_depositor_comments
;
The following automatic conversions were performed:
'_symmetry_cell_setting' value 'Monoclinic' changed to 'monoclinic'
according to '/home/saulius/struct/CIF-dictionaries/cif_core.dic'
dictionary named 'cif_core.dic' version 2.4.1 from 2010-06-29.

Automatic conversion script
Id: cif_fix_enum 1527 2010-12-29 10:47:43Z saulius 

The following automatic conversions were performed:

'_symmetry_cell_setting' value 'Monoclinic' changed to 'monoclinic'
according to /home/saulius/struct/CIF-dictionaries/cif_core.dic
dictionary named 'cif_core.dic' version 2.4.1 from 2010-06-29.

Automatic conversion script
Id: cif_fix_values 1715 2011-07-08 13:25:40Z adriana 
;
_cod_original_sg_symbol_H-M      'P 1 21/c 1 '
_cod_database_code               2100437
loop_
_symmetry_equiv_pos_as_xyz
x,y,z
-x,-y,-z
-x,y+1/2,-z+1/2
x,-y+1/2,z+1/2
loop_
_atom_site_type_symbol
_atom_site_label
_atom_site_fract_x
_atom_site_fract_y
_atom_site_fract_z
_atom_site_U_iso_or_equiv
_atom_site_adp_type
_atom_site_occupancy
C C2 0.5201(6) 0.3365(5) 0.2673(9) 0.0185(12) Uiso 1.0000
N N2 0.3840(5) 0.4127(4) 0.1685(8) 0.0180(11) Uiso 1.0000
C C3 0.2390(6) 0.3411(5) 0.0401(10) 0.0197(12) Uiso 1.0000
C C4 0.1420(6) 0.4432(5) -0.1037(9) 0.0163(12) Uiso 1.0000
O O2 0.1770(5) 0.5760(4) -0.0861(7) 0.0259(10) Uiso 1.0000
O O3 0.0294(5) 0.3866(4) -0.2322(8) 0.0300(11) Uiso 1.0000
C C1 0.6588(6) 0.4168(5) 0.4061(10) 0.0198(13) Uiso 1.0000
N N1 0.8408(5) 0.3403(4) 0.4349(8) 0.0202(11) Uiso 1.0000
O O1 0.5306(5) 0.2029(4) 0.2570(7) 0.0266(11) Uiso 1.0000
H H2 0.9246 0.3881 0.5179 0.0249 Uiso 1.0000
H H1 0.8820 0.3357 0.3303 0.0249 Uiso 1.0000
H H3 0.8266 0.2496 0.4748 0.0249 Uiso 1.0000
H H4 0.6746 0.5174 0.3609 0.0242 Uiso 1.0000
H H5 0.6131 0.4217 0.5213 0.0242 Uiso 1.0000
H H6 0.3812 0.5091 0.1821 0.0210 Uiso 1.0000
H H7 0.2966 0.2614 -0.0201 0.0228 Uiso 1.0000
H H8 0.1450 0.3003 0.1049 0.0228 Uiso 1.0000
loop_
_atom_type_symbol
_atom_type_scat_dispersion_real
_atom_type_scat_dispersion_imag
_atom_type_scat_source
C 0.0033 0.0016 'International Tables Vol C 4.2.6.8 and 6.1.1.4'
H 0.0000 0.0000 'International Tables Vol C 4.2.6.8 and 6.1.1.4'
N 0.0061 0.0033 'International Tables Vol C 4.2.6.8 and 6.1.1.4'
O 0.0106 0.0060 'International Tables Vol C 4.2.6.8 and 6.1.1.4'
loop_
_geom_angle_atom_site_label_1
_geom_angle_atom_site_label_2
_geom_angle_atom_site_label_3
_geom_angle
_geom_angle_publ_flag
N2 C2 C1 117.3(4) yes
N2 C2 O1 122.9(4) yes
C1 C2 O1 119.6(4) yes
C2 N2 C3 120.3(4) yes
C2 N2 H6 119.7 no
C3 N2 H6 120.0 no
N2 C3 C4 112.0(4) yes
N2 C3 H7 108.8 no
C4 C3 H7 108.3 no
N2 C3 H8 109.2 no
C4 C3 H8 108.7 no
H7 C3 H8 109.9 no
C3 C4 O2 118.7(5) yes
C3 C4 O3 116.0(4) yes
O2 C4 O3 125.3(5) yes
C2 C1 N1 109.2(4) yes
C2 C1 H4 109.1 no
N1 C1 H4 109.2 no
C2 C1 H5 109.6 no
N1 C1 H5 110.0 no
H4 C1 H5 109.7 no
C1 N1 H2 109.6 no
C1 N1 H1 109.9 no
H2 N1 H1 109.5 no
C1 N1 H3 109.3 no
H2 N1 H3 109.3 no
H1 N1 H3 109.2 no
loop_
_geom_bond_atom_site_label_1
_geom_bond_atom_site_label_2
_geom_bond_distance
_geom_bond_publ_flag
C2 N2 1.321(7) yes
C2 C1 1.501(8) yes
C2 O1 1.239(5) yes
N2 C3 1.446(7) yes
N2 H6 0.897 no
C3 C4 1.504(8) yes
C3 H7 1.001 no
C3 H8 0.994 no
C4 O2 1.253(5) yes
C4 O3 1.255(7) yes
C1 N1 1.484(6) yes
C1 H4 1.004 no
C1 H5 0.993 no
N1 H2 0.899 no
N1 H1 0.900 no
N1 H3 0.903 no
loop_
_cod_related_entry_id
_cod_related_entry_database
_cod_related_entry_code
1 ChemSpider 10690
