#------------------------------------------------------------------------------
#$Date: 2019-11-04 14:10:04 +0200 (Mon, 04 Nov 2019) $
#$Revision: 222974 $
#$URL: file:///home/coder/svn-repositories/cod/cif/4/03/44/4034456.cif $
#------------------------------------------------------------------------------
#
# This file is available in the Crystallography Open Database (COD),
# http://www.crystallography.net/
#
# All data on this site have been placed in the public domain by the
# contributors.
#
data_4034456
loop_
_publ_author_name
'Ghosh, Sanjib'
'Roy, Biswajit'
'Bandyopadhyay, Subhajit'
_publ_section_title
;
 Formation or Cleavage of Rings via Sulfide-Mediated Reduction Offers
 Background-Free Detection of Sulfide.
;
_journal_issue                   18
_journal_name_full               'The Journal of organic chemistry'
_journal_page_first              12031
_journal_page_last               12039
_journal_paper_doi               10.1021/acs.joc.9b01946
_journal_volume                  84
_journal_year                    2019
_chemical_formula_moiety         'C10 H7 N3'
_chemical_formula_sum            'C10 H7 N3'
_chemical_formula_weight         169.19
_space_group_crystal_system      triclinic
_space_group_IT_number           2
_space_group_name_Hall           '-P 1'
_space_group_name_H-M_alt        'P -1'
_atom_sites_solution_hydrogens   mixed
_atom_sites_solution_primary     dual
_audit_creation_date             2018-08-17
_audit_creation_method
;
Olex2 1.2
(compiled 2018.05.29 svn.r3508 for OlexSys, GUI svn.r5506)
;
_cell_angle_alpha                96.507(16)
_cell_angle_beta                 104.492(19)
_cell_angle_gamma                98.120(19)
_cell_formula_units_Z            2
_cell_length_a                   6.7285(17)
_cell_length_b                   6.8933(14)
_cell_length_c                   9.4360(16)
_cell_measurement_reflns_used    790
_cell_measurement_temperature    114(20)
_cell_measurement_theta_max      24.9920
_cell_measurement_theta_min      2.2270
_cell_volume                     414.41(16)
_computing_cell_refinement
;
CrysAlisPro, Agilent Technologies,
Version 1.171.37.34 (release 22-05-2014 CrysAlis171 .NET)
(compiled May 22 2014,16:03:01)
;
_computing_data_collection
;
CrysAlisPro, Agilent Technologies,
Version 1.171.37.34 (release 22-05-2014 CrysAlis171 .NET)
(compiled May 22 2014,16:03:01)
;
_computing_data_reduction
;
CrysAlisPro, Agilent Technologies,
Version 1.171.37.34 (release 22-05-2014 CrysAlis171 .NET)
(compiled May 22 2014,16:03:01)
;
_computing_molecular_graphics    'Olex2 (Dolomanov et al., 2009)'
_computing_publication_material  'Olex2 (Dolomanov et al., 2009)'
_computing_structure_refinement  'ShelXL (Sheldrick, 2015)'
_computing_structure_solution    'ShelXT (Sheldrick, 2015)'
_diffrn_ambient_environment      N~2~
_diffrn_ambient_temperature      114(20)
_diffrn_detector                 'CCD plate'
_diffrn_detector_area_resol_mean 7.9580
_diffrn_detector_type            Eos
_diffrn_measured_fraction_theta_full 0.985
_diffrn_measured_fraction_theta_max 0.985
_diffrn_measurement_details
;
#__ type_ start__ end____ width___ exp.time_
  1 omega  -20.00   30.00   1.0000   15.0000
omega____ theta____ kappa____ phi______ frames
    -      -25.8398  -99.0000 -180.0000 50

#__ type_ start__ end____ width___ exp.time_
  2 omega  -11.00  104.00   1.0000   15.0000
omega____ theta____ kappa____ phi______ frames
    -       27.3242   57.0000  120.0000 115

#__ type_ start__ end____ width___ exp.time_
  3 omega  -11.00  104.00   1.0000   15.0000
omega____ theta____ kappa____ phi______ frames
    -       27.3242   57.0000 -150.0000 115

#__ type_ start__ end____ width___ exp.time_
  4 omega  -32.00  110.00   1.0000   15.0000
omega____ theta____ kappa____ phi______ frames
    -       27.3242   38.0000  -30.0000 142

#__ type_ start__ end____ width___ exp.time_
  5 omega   35.00  125.00   1.0000   15.0000
omega____ theta____ kappa____ phi______ frames
    -       27.3242  178.0000  120.0000 90

#__ type_ start__ end____ width___ exp.time_
  6 omega  -49.00  -14.00   1.0000   15.0000
omega____ theta____ kappa____ phi______ frames
    -       27.3242  -57.0000 -180.0000 35
;
_diffrn_measurement_device       'four-circle diffractometer'
_diffrn_measurement_device_type  'SuperNova, Dual, Cu at zero, Eos'
_diffrn_measurement_method       '\w scans'
_diffrn_orient_matrix_UB_11      -0.0468224000
_diffrn_orient_matrix_UB_12      -0.0189999000
_diffrn_orient_matrix_UB_13      -0.0775488000
_diffrn_orient_matrix_UB_21      -0.0986672000
_diffrn_orient_matrix_UB_22      -0.0294306000
_diffrn_orient_matrix_UB_23      0.0126258000
_diffrn_orient_matrix_UB_31      -0.0175525000
_diffrn_orient_matrix_UB_32      0.0992091000
_diffrn_orient_matrix_UB_33      0.0018221000
_diffrn_radiation_monochromator  mirror
_diffrn_radiation_probe          x-ray
_diffrn_radiation_type           MoK\a
_diffrn_radiation_wavelength     0.71073
_diffrn_reflns_av_R_equivalents  0.0293
_diffrn_reflns_av_unetI/netI     0.0455
_diffrn_reflns_Laue_measured_fraction_full 0.985
_diffrn_reflns_Laue_measured_fraction_max 0.985
_diffrn_reflns_limit_h_max       8
_diffrn_reflns_limit_h_min       -7
_diffrn_reflns_limit_k_max       8
_diffrn_reflns_limit_k_min       -8
_diffrn_reflns_limit_l_max       11
_diffrn_reflns_limit_l_min       -11
_diffrn_reflns_number            2833
_diffrn_reflns_point_group_measured_fraction_full 0.985
_diffrn_reflns_point_group_measured_fraction_max 0.985
_diffrn_reflns_theta_full        25.024
_diffrn_reflns_theta_max         25.024
_diffrn_reflns_theta_min         2.257
_diffrn_source                   'SuperNova (Mo) X-ray Source'
_exptl_absorpt_coefficient_mu    0.086
_exptl_absorpt_correction_T_max  1.00000
_exptl_absorpt_correction_T_min  0.45560
_exptl_absorpt_correction_type   multi-scan
_exptl_absorpt_process_details
;
CrysAlisPro, Agilent Technologies,
Version 1.171.37.34 (release 22-05-2014 CrysAlis171 .NET)
(compiled May 22 2014,16:03:01)
Empirical absorption correction using spherical harmonics,
 implemented in SCALE3 ABSPACK scaling algorithm.
;
_exptl_crystal_colour            brown
_exptl_crystal_density_diffrn    1.356
_exptl_crystal_description       block
_exptl_crystal_F_000             168
_exptl_crystal_size_max          0.2378
_exptl_crystal_size_mid          0.2369
_exptl_crystal_size_min          0.1168
_refine_diff_density_max         0.470
_refine_diff_density_min         -0.455
_refine_diff_density_rms         0.088
_refine_ls_extinction_method     none
_refine_ls_goodness_of_fit_ref   1.069
_refine_ls_hydrogen_treatment    constr
_refine_ls_matrix_type           full
_refine_ls_number_parameters     119
_refine_ls_number_reflns         1437
_refine_ls_number_restraints     0
_refine_ls_restrained_S_all      1.069
_refine_ls_R_factor_all          0.1049
_refine_ls_R_factor_gt           0.0812
_refine_ls_shift/su_max          0.000
_refine_ls_shift/su_mean         0.000
_refine_ls_structure_factor_coef Fsqd
_refine_ls_weighting_details
'w=1/[\s^2^(Fo^2^)+(0.1461P)^2^+0.1340P] where P=(Fo^2^+2Fc^2^)/3'
_refine_ls_weighting_scheme      calc
_refine_ls_wR_factor_gt          0.2168
_refine_ls_wR_factor_ref         0.2483
_reflns_Friedel_coverage         0.000
_reflns_number_gt                1012
_reflns_number_total             1437
_reflns_threshold_expression     'I > 2\s(I)'
_iucr_refine_instructions_details
;

    2a3cq.res created by SHELXL-2014/7

TITL 2a3cq_a.res in P-1
REM Old TITL 2A3CQ in P-1
REM SHELXT solution in P-1
REM R1 0.179, Rweak 0.004, Alpha 0.048, Orientation as input
REM Formula found by SHELXT: C10 N3
CELL 0.71073 6.7285 6.8933 9.436 96.507 104.492 98.12
ZERR 12 0.0017 0.0014 0.0016 0.016 0.019 0.019
LATT 1
SFAC C H N
UNIT 12 12 12
 
L.S. 99
PLAN  20
BOND $H
list 4
fmap 2 53
ACTA
OMIT -3 6 0
OMIT 0 0 4
OMIT 0 0 5
OMIT 0 1 5
OMIT -1 0 10
OMIT 0 1 1
OMIT -1 -1 5
OMIT 0 2 2
OMIT -1 -1 1
OMIT 0 0 6
OMIT -1 1 4
OMIT 2 2 2
OMIT 0 6 0
OMIT -1 0 6
OMIT 1 3 0
OMIT -1 2 2
OMIT -1 -1 3
OMIT -1 0 4
REM <olex2.extras>
REM <HklSrc "%.\\2A3CQ.hkl">
REM </olex2.extras>
 
WGHT    0.146100    0.134000
FVAR       1.06772
N1    3    0.249811    0.674971    0.527432    11.00000    0.03056    0.02376 =
         0.02308    0.00403    0.00850   -0.00457
N2    3   -0.005908    0.583484    0.306118    11.00000    0.02902    0.02603 =
         0.03232    0.00853    0.00999   -0.00025
AFIX   7
H8A   2   -0.062078    0.503714    0.355058    11.00000   -1.20000
H8B   2   -0.071668    0.682094    0.296628    11.00000   -1.20000
AFIX   0
N3    3    0.226764    0.641952    0.015656    11.00000    0.04048    0.03934 =
         0.02783    0.00583    0.00824   -0.00507
C5    1    0.453631    0.745802    0.604710    11.00000    0.02873    0.01756 =
         0.02787    0.00646    0.00777   -0.00108
C6    1    0.614111    0.789741    0.532838    11.00000    0.03040    0.01786 =
         0.02926    0.00336    0.00702    0.00011
C8    1    0.349431    0.698707    0.300199    11.00000    0.02861    0.02223 =
         0.02345    0.00553    0.00812   -0.00115
C7    1    0.552971    0.765458    0.377689    11.00000    0.02983    0.02326 =
         0.03071    0.00588    0.01301    0.00192
AFIX  43
H7    2    0.652375    0.795208    0.326753    11.00000   -1.20000
AFIX   0
C9    1    0.196836    0.651382    0.380750    11.00000    0.02795    0.01969 =
         0.02476    0.00320    0.00819   -0.00102
C10   1    0.284369    0.668241    0.141335    11.00000    0.02790    0.02366 =
         0.02805    0.00438    0.00993   -0.00444
C1    1    0.821057    0.854052    0.620184    11.00000    0.02883    0.02700 =
         0.03652    0.00315    0.00771    0.00104
AFIX  43
H1    2    0.926158    0.883676    0.574034    11.00000   -1.20000
AFIX   0
C4    1    0.507550    0.769570    0.759963    11.00000    0.04099    0.02554 =
         0.02716    0.00402    0.00787   -0.00500
AFIX  43
H4    2    0.404180    0.743215    0.808157    11.00000   -1.20000
AFIX   0
C3    1    0.711041    0.831253    0.841505    11.00000    0.04656    0.02837 =
         0.02668    0.00301    0.00115   -0.00363
AFIX  43
H3    2    0.744810    0.845343    0.944352    11.00000   -1.20000
AFIX   0
C2    1    0.870252    0.873656    0.769582    11.00000    0.03071    0.03126 =
         0.03559    0.00400   -0.00301   -0.00221
AFIX  43
H2    2    1.008156    0.914851    0.825159    11.00000   -1.20000
AFIX   0
HKLF 4
 
REM  2a3cq_a.res in P-1
REM R1 =  0.0812 for    1012 Fo > 4sig(Fo)  and  0.1049 for all    1437 data
REM    119 parameters refined using      0 restraints
 
END  
     
WGHT      0.1503      0.1140 

REM Highest difference peak  0.470,  deepest hole -0.455,  1-sigma level  0.088
Q1    1  -0.0387  0.5470  0.1980  11.00000  0.05    0.47
Q2    1   0.1803  0.6462  0.3066  11.00000  0.05    0.27
Q3    1   0.5121  0.6990  0.5408  11.00000  0.05    0.26
Q4    1   0.2180  0.6438  0.3132  11.00000  0.05    0.25
Q5    1   0.6630  0.7052  0.2961  11.00000  0.05    0.25
Q6    1   0.1585  0.6886  0.0977  11.00000  0.05    0.24
Q7    1   0.2205  0.6591  0.4166  11.00000  0.05    0.24
Q8    1  -0.2256  0.7143  0.2865  11.00000  0.05    0.23
Q9    1   0.5381  0.7972  0.4612  11.00000  0.05    0.23
Q10   1   0.0781  0.4850  0.2961  11.00000  0.05    0.23
Q11   1   0.5000  0.5000  0.5000  10.50000  0.05    0.23
Q12   1   0.3959  0.5952  0.5740  11.00000  0.05    0.23
Q13   1   0.2558  0.6405  0.4449  11.00000  0.05    0.23
Q14   1   1.0661  0.7966  0.5168  11.00000  0.05    0.21
Q15   1   0.3149  0.6827  0.2163  11.00000  0.05    0.21
Q16   1   0.8817  0.8013  0.5595  11.00000  0.05    0.21
Q17   1   0.2417  0.9081  0.5780  11.00000  0.05    0.20
Q18   1   0.3686  0.9143  0.3371  11.00000  0.05    0.20
Q19   1   0.1372  0.7758  0.2817  11.00000  0.05    0.20
Q20   1   0.7201  0.6805  0.5522  11.00000  0.05    0.20

  REM The information below was added by Olex2.
  REM
  REM R1 = 0.0812 for 1012 Fo > 4sig(Fo) and 0.1049 for all 2882 data
  REM n/a parameters refined using n/a restraints
  REM Highest difference peak 0.47, deepest hole -0.46
  REM Mean Shift 0, Max Shift 0.000.

  REM +++ Tabular Listing of Refinement Information +++
  REM R1_all = 0.1049
  REM R1_gt = 0.0812
  REM wR_ref = 0.2483
  REM GOOF = 1.069
  REM Shift_max = 0.000
  REM Shift_mean = 0
  REM Reflections_all = 2882
  REM Reflections_gt = 1012
  REM Parameters = n/a
  REM Hole = -0.46
  REM Peak = 0.47
  REM Flack = n/a

  
;
_cod_data_source_file            jo9b01946_si_007.cif
_cod_data_source_block           2a3cq
_cod_database_code               4034456
_shelx_shelxl_version_number     2014/7
_chemical_oxdiff_formula         'C H N'
_shelx_space_group_comment
;
The symmetry employed for this shelxl refinement is uniquely defined
by the following loop, which should always be used as a source of
symmetry information in preference to the above space-group names.
They are only intended as comments.
;
_reflns_odcompleteness_completeness 91.74
_reflns_odcompleteness_iscentric 1
_reflns_odcompleteness_theta     25.63
_olex2_refinement_description
;
1. Fixed Uiso
 At 1.2 times of:
  All C(H) groups, All N(H,H) groups
2.a Rotating group:
 N2(H8A,H8B)
2.b Aromatic/amide H refined with riding coordinates:
 C7(H7), C1(H1), C4(H4), C3(H3), C2(H2)
;
_olex2_date_sample_data_collection 2018-06-23
_olex2_submission_special_instructions 'No special instructions were received'
loop_
_space_group_symop_operation_xyz
'x, y, z'
'-x, -y, -z'
loop_
_atom_site_label
_atom_site_type_symbol
_atom_site_fract_x
_atom_site_fract_y
_atom_site_fract_z
_atom_site_U_iso_or_equiv
_atom_site_adp_type
_atom_site_occupancy
_atom_site_site_symmetry_order
_atom_site_calc_flag
_atom_site_refinement_flags_posn
N1 N 0.2498(4) 0.6750(3) 0.5274(2) 0.0265(7) Uani 1 1 d .
N2 N -0.0059(4) 0.5835(3) 0.3061(3) 0.0290(7) Uani 1 1 d .
H8A H -0.0621 0.5037 0.3551 0.035 Uiso 1 1 d GR
H8B H -0.0717 0.6821 0.2966 0.035 Uiso 1 1 d GR
N3 N 0.2268(4) 0.6420(4) 0.0157(3) 0.0372(8) Uani 1 1 d .
C5 C 0.4536(4) 0.7458(4) 0.6047(3) 0.0250(7) Uani 1 1 d .
C6 C 0.6141(4) 0.7897(4) 0.5328(3) 0.0265(7) Uani 1 1 d .
C8 C 0.3494(4) 0.6987(4) 0.3002(3) 0.0250(7) Uani 1 1 d .
C7 C 0.5530(4) 0.7655(4) 0.3777(3) 0.0272(8) Uani 1 1 d .
H7 H 0.6524 0.7952 0.3268 0.033 Uiso 1 1 calc R
C9 C 0.1968(4) 0.6514(4) 0.3808(3) 0.0245(7) Uani 1 1 d .
C10 C 0.2844(4) 0.6682(4) 0.1413(3) 0.0270(7) Uani 1 1 d .
C1 C 0.8211(5) 0.8541(4) 0.6202(3) 0.0315(8) Uani 1 1 d .
H1 H 0.9262 0.8837 0.5740 0.038 Uiso 1 1 calc R
C4 C 0.5076(5) 0.7696(4) 0.7600(3) 0.0326(8) Uani 1 1 d .
H4 H 0.4042 0.7432 0.8082 0.039 Uiso 1 1 calc R
C3 C 0.7110(5) 0.8313(4) 0.8415(3) 0.0366(9) Uani 1 1 d .
H3 H 0.7448 0.8453 0.9444 0.044 Uiso 1 1 calc R
C2 C 0.8703(5) 0.8737(4) 0.7696(3) 0.0356(8) Uani 1 1 d .
H2 H 1.0082 0.9149 0.8252 0.043 Uiso 1 1 calc R
loop_
_atom_site_aniso_label
_atom_site_aniso_U_11
_atom_site_aniso_U_22
_atom_site_aniso_U_33
_atom_site_aniso_U_23
_atom_site_aniso_U_13
_atom_site_aniso_U_12
N1 0.0306(15) 0.0238(13) 0.0231(14) 0.0040(9) 0.0085(10) -0.0046(10)
N2 0.0290(14) 0.0260(13) 0.0323(15) 0.0085(10) 0.0100(10) -0.0003(10)
N3 0.0405(16) 0.0393(16) 0.0278(16) 0.0058(11) 0.0082(11) -0.0051(12)
C5 0.0287(16) 0.0176(14) 0.0279(16) 0.0065(11) 0.0078(12) -0.0011(11)
C6 0.0304(17) 0.0179(14) 0.0293(16) 0.0034(11) 0.0070(13) 0.0001(12)
C8 0.0286(16) 0.0222(14) 0.0235(15) 0.0055(11) 0.0081(12) -0.0011(12)
C7 0.0298(17) 0.0233(15) 0.0307(17) 0.0059(11) 0.0130(13) 0.0019(12)
C9 0.0279(16) 0.0197(14) 0.0248(15) 0.0032(10) 0.0082(11) -0.0010(11)
C10 0.0279(16) 0.0237(15) 0.0281(18) 0.0044(11) 0.0099(12) -0.0044(12)
C1 0.0288(16) 0.0270(16) 0.0365(18) 0.0032(12) 0.0077(13) 0.0010(12)
C4 0.0410(18) 0.0255(16) 0.0272(17) 0.0040(11) 0.0079(13) -0.0050(13)
C3 0.047(2) 0.0284(16) 0.0267(17) 0.0030(12) 0.0011(14) -0.0036(14)
C2 0.0307(17) 0.0313(17) 0.0356(18) 0.0040(13) -0.0030(13) -0.0022(13)
loop_
_atom_type_symbol
_atom_type_description
_atom_type_scat_dispersion_real
_atom_type_scat_dispersion_imag
_atom_type_scat_source
C C 0.0033 0.0016 'International Tables Vol C Tables 4.2.6.8 and 6.1.1.4'
H H 0.0000 0.0000 'International Tables Vol C Tables 4.2.6.8 and 6.1.1.4'
N N 0.0061 0.0033 'International Tables Vol C Tables 4.2.6.8 and 6.1.1.4'
loop_
_geom_angle_atom_site_label_1
_geom_angle_atom_site_label_2
_geom_angle_atom_site_label_3
_geom_angle
C9 N1 C5 119.4(2)
H8A N2 H8B 109.2
C9 N2 H8A 109.4
C9 N2 H8B 109.5
N1 C5 C6 122.4(3)
N1 C5 C4 118.8(3)
C4 C5 C6 118.8(3)
C7 C6 C5 116.9(3)
C7 C6 C1 124.3(3)
C1 C6 C5 118.9(3)
C7 C8 C9 118.9(3)
C7 C8 C10 121.8(2)
C10 C8 C9 119.2(2)
C6 C7 H7 119.5
C8 C7 C6 120.9(3)
C8 C7 H7 119.5
N1 C9 N2 118.6(2)
N1 C9 C8 121.4(2)
N2 C9 C8 120.0(2)
N3 C10 C8 177.9(3)
C6 C1 H1 119.3
C2 C1 C6 121.4(3)
C2 C1 H1 119.3
C5 C4 H4 119.6
C3 C4 C5 120.7(3)
C3 C4 H4 119.6
C4 C3 H3 119.9
C4 C3 C2 120.3(3)
C2 C3 H3 119.9
C1 C2 C3 119.9(3)
C1 C2 H2 120.1
C3 C2 H2 120.1
loop_
_geom_bond_atom_site_label_1
_geom_bond_atom_site_label_2
_geom_bond_distance
N1 C5 1.371(4)
N1 C9 1.325(3)
N2 H8A 0.8629
N2 H8B 0.8630
N2 C9 1.356(4)
N3 C10 1.136(3)
C5 C6 1.428(4)
C5 C4 1.403(4)
C6 C7 1.401(4)
C6 C1 1.408(4)
C8 C7 1.366(4)
C8 C9 1.446(4)
C8 C10 1.434(4)
C7 H7 0.9300
C1 H1 0.9300
C1 C2 1.351(4)
C4 H4 0.9300
C4 C3 1.372(4)
C3 H3 0.9300
C3 C2 1.419(5)
C2 H2 0.9300
loop_
_refln_index_h
_refln_index_k
_refln_index_l
_refln_F_squared_meas
_refln_F_squared_sigma
0 0 1 2489.06 41.62
0 0 -1 2532.05 42.33
0 0 2 110.92 4.15
0 0 -2 117.86 4.75
0 0 -2 104.29 4.45
0 0 -3 156.57 6.68
0 0 3 162.58 6.2
0 0 4 23.04 2.7
0 0 -4 23.05 2.9
0 0 5 160.74 8.16
0 0 -5 163.7 8.53
0 0 6 102.11 7.15
0 0 -6 107.05 7.29
0 0 -7 11.33 2.65
0 0 7 7.16 2.16
0 0 7 7.51 2.31
0 0 8 128.59 9.8
0 0 -8 133.49 9.35
0 0 8 108.21 8.51
0 0 9 27.67 4.61
0 0 9 28.01 4.88
0 0 -9 25.71 4.28
0 0 10 7.25 2.71
0 -1 10 65.57 8.19
0 -1 10 69.82 7.72
0 -1 9 29.04 5.06
0 1 -8 63.3 6.12
0 -1 8 79.61 7.25
0 1 -7 55.69 5.43
0 -1 7 69.3 6.44
0 1 -7 68.87 5.47
0 -1 6 75.9 5.89
0 1 -6 81.64 5.47
0 1 -6 67.07 5.63
0 1 -5 1007.55 23.3
0 1 -5 969.02 24.43
0 -1 5 965.04 24.09
0 -1 4 1673.68 34.35
0 1 -4 1671.15 34.99
0 1 -4 1722.84 33.54
0 1 -3 232.47 7.01
0 -1 3 251.12 7.83
0 1 -2 0.54 0.26
0 -1 2 1.63 0.53
0 1 -2 0.75 0.28
0 -1 1 52.06 2.02
0 1 -1 53.26 2.43
0 1 0 333.73 8.47
0 -1 0 328.4 7.5
0 -1 0 343.72 7.2
0 1 1 39.21 2.1
0 -1 -1 35.28 1.91
0 -1 -1 33.24 2.32
0 1 2 192 5.91
0 -1 -2 216.04 6.79
0 -1 -3 347.26 11.84
0 1 3 371.16 10.4
0 -1 -3 368.46 10.86
0 -1 -4 1033.63 23.85
0 1 4 977.02 23.32
0 1 4 1039.21 24.18
0 -1 -4 1025.51 25.82
0 1 5 111.88 6.85
0 -1 -5 123.85 7.94
0 1 5 114.18 6.67
0 -1 -6 80.13 6.9
0 1 6 79.72 6.21
0 -1 -7 20.33 3.85
0 1 7 19.57 3.36
0 -1 -8 117.57 9.51
0 1 8 125.37 9.56
0 -1 -9 37.32 5.66
0 1 9 39.79 5.8
0 1 10 4.3 2.2
0 -1 -10 0.57 1.29
0 -2 10 14.28 3.83
0 -2 9 46.12 5.99
0 2 -8 -0.14 0.63
0 -2 8 -0.74 0.85
0 2 -7 -0.55 0.53
0 -2 7 0.26 0.85
0 -2 6 22.33 3.15
0 2 -6 19.2 2.72
0 2 -6 17.84 2.13
0 2 -5 169.58 6.25
0 -2 5 192.04 8.14
0 2 -5 177.11 8.05
0 2 -4 46.59 3.67
0 -2 4 48.17 3.43
0 2 -4 40.51 2.32
0 -2 3 32.75 2.41
0 2 -3 28.74 2.7
0 -2 2 45.79 2.62
0 2 -2 50.57 3.31
0 -2 1 5521.33 98.99
0 2 -1 5631.79 101.21
0 -2 0 4071.05 70.32
0 2 0 4013.71 73.75
0 -2 0 4022.76 70.09
0 -2 -1 621.71 13.29
0 -2 -1 648.36 15.87
0 -2 -2 6.22 1.12
0 -2 -2 5.25 1.31
0 -2 -2 9.32 1.78
0 2 3 13.22 1.97
0 -2 -3 11.9 1.58
0 -2 -3 8.46 1.89
0 -2 -3 14.43 2.24
0 -2 -4 0.03 0.7
0 2 4 0.6 0.64
0 -2 -4 -0.18 0.48
0 -2 -5 -1.04 0.94
0 2 5 -1.03 1.06
0 2 6 7.6 1.96
0 -2 -6 9.62 2.82
0 -2 -7 -0.06 0.96
0 2 7 -0.51 0.81
0 -2 -8 222.73 13.46
0 2 8 203.06 12.8
0 2 9 7.6 2.88
0 -2 -9 7.7 2.74
0 -3 10 6.79 2.46
0 -3 9 -0.42 1.31
0 3 -8 1.93 1.36
0 -3 8 -0.55 0.97
0 -3 7 10.8 2.33
0 3 -7 8.39 1.99
0 3 -6 99.51 6.69
0 -3 6 92.15 6.13
0 -3 5 161.27 7.55
0 3 -5 176.36 8.68
0 3 -4 17.86 2.59
0 -3 4 21.16 2.38
0 -3 3 42.98 3.06
0 3 -3 36.57 3.51
0 3 -2 294.2 10.55
0 -3 2 292.03 8.55
0 -3 1 15.1 1.75
0 3 -1 11.49 2.17
0 -3 1 13.62 1.81
0 -3 0 33.55 2.35
0 3 0 38.92 3.96
0 -3 0 35.05 2.94
0 -3 0 31.11 2.84
0 -3 -1 54.44 3.72
0 -3 -1 53.86 2.98
0 -3 -1 56.77 4.26
0 -3 -2 58.19 4.7
0 -3 -2 57.25 3.29
0 -3 -3 37.96 4.14
0 -3 -3 46.74 4.6
0 -3 -3 38.17 2.79
0 -3 -4 1.32 0.96
0 -3 -4 3.02 1.29
0 -3 -4 2.83 0.86
0 3 5 -0.01 0.71
0 -3 -5 -1.51 1.35
0 3 6 2.09 1.33
0 -3 -6 0.9 1.37
0 -3 -7 51.04 6.23
0 3 7 50.65 5.94
0 -3 -8 3.71 1.99
0 3 8 -0.19 1.37
0 -3 -9 4.86 2.31
0 3 9 -1.61 1.51
0 -4 10 1.1 0.91
0 -4 9 16.9 3.44
0 4 -8 30.26 4.19
0 -4 8 36.65 4.64
0 -4 7 0.01 0.76
0 4 -7 2.43 1.44
0 4 -6 48.95 5.18
0 -4 6 47.69 4.44
0 4 -5 5.16 1.68
0 -4 5 6.95 1.65
0 4 -4 1.3 0.87
0 -4 4 4.38 1.31
0 4 -3 13.57 2.51
0 -4 3 14.15 2.09
0 4 -2 73.62 5.84
0 -4 2 74.62 4.17
0 -4 2 80.25 4.83
0 -4 1 448.64 13.64
0 4 -1 422.13 15.68
0 -4 1 430.68 13.45
0 -4 0 89.61 5.56
0 -4 0 83.86 5.61
0 -4 0 77.29 4.31
0 4 0 85.51 6.73
0 -4 -1 1.11 0.88
0 -4 -1 1.55 0.84
0 -4 -1 -0.14 0.63
0 -4 -2 11.6 2.35
0 -4 -2 14.92 2.41
0 -4 -2 10.33 2.31
0 -4 -3 -0.02 0.84
0 -4 -3 -0.57 1.12
0 -4 -4 5.89 2
0 -4 -4 8.71 2.3
0 -4 -5 17.96 3.3
0 -4 -5 13.09 2.91
0 -4 -6 17.17 3.55
0 -4 -7 10.46 3.02
0 -4 -8 11.07 3.09
0 -5 9 1.75 0.78
0 5 -8 14.02 3.18
0 -5 8 11.89 2.85
0 5 -7 12.72 3.08
0 -5 7 18.32 3.19
0 -5 6 8.03 1.94
0 5 -6 9.85 2.59
0 -5 5 7.36 1.75
0 5 -5 10.15 2.57
0 5 -4 1.56 0.95
0 -5 4 -0.32 0.44
0 5 -3 19.33 3.35
0 -5 3 20.26 2.78
0 5 -2 11.37 2.63
0 -5 2 10.61 2.12
0 5 -1 0 0.84
0 -5 1 2.13 1.12
0 -5 0 5.62 1.86
0 -5 0 5.3 1.81
0 -5 0 4.96 2.15
0 -5 -1 2.39 1.3
0 -5 -1 0.2 0.66
0 -5 -1 0.74 1.22
0 -5 -2 2.51 1.39
0 -5 -2 -0.61 0.69
0 -5 -2 1.9 1.45
0 -5 -3 0.93 1.05
0 -5 -3 0.11 0.79
0 -5 -3 1.51 1.21
0 -5 -4 0.25 1.04
0 -5 -4 0.31 0.61
0 -5 -4 -0.95 1.01
0 -5 -5 0.02 0.74
0 -5 -5 1.29 1.23
0 -5 -6 3 1.82
0 -5 -7 6.88 2.38
0 6 -8 -0.19 0.89
0 6 -7 42.67 6.04
0 6 -6 4.72 2.12
0 6 -5 1.84 1.25
0 6 -4 -1.16 0.73
0 6 -3 172.19 11.32
0 6 -2 64.8 7.1
0 6 -1 2.76 1.52
0 -6 1 2.84 1.7
0 -6 0 66.94 7.82
0 -6 -1 20.74 3.79
0 -6 -1 21.31 4.42
0 -6 -2 7.71 2.46
0 -6 -2 6.17 2.49
0 -6 -3 4.42 1.87
0 -6 -3 4.5 2.09
0 -6 -4 9.4 3.02
0 -6 -4 7.73 2.41
0 -6 -4 6.06 2.13
0 -6 -5 6.74 2.46
0 -6 -5 4.62 1.96
0 -6 -5 4.36 2.15
0 7 -6 8.12 2.94
0 7 -5 12.49 3.36
0 7 -4 1.35 1.16
0 7 -3 19.54 4.29
0 -7 2 53.56 7
0 7 -2 53.44 6.68
0 -7 1 6.73 2.53
0 -7 0 31.1 5.82
0 -7 -1 14.37 4.19
0 -7 -2 31.52 6.1
0 -7 -3 2.2 1.74
0 -7 -3 2.21 1.82
0 -8 3 116.24 11.3
0 8 -3 86.47 9.48
0 -8 2 3.07 1.81
0 -8 1 1.84 1.69
0 -8 0 12.6 3.97
1 -8 -1 4.07 2.54
1 -8 0 15.75 4.19
-1 8 -1 14.18 4.09
1 -8 1 11.16 3.47
-1 8 -2 6.74 2.75
1 -8 2 1.42 1.32
1 -8 3 6.14 2.62
-1 8 -3 10.54 3.42
1 -7 -4 0.21 1.35
1 -7 -4 -4.51 2.34
1 -7 -3 1.81 1.49
1 -7 -3 2.02 1.71
1 -7 -2 2.15 1.88
1 -7 -1 1.37 1.55
1 -7 0 2.26 1.47
-1 7 0 0.17 1.09
1 -7 1 0.64 1.03
-1 7 -1 2.63 1.87
1 -7 2 6.06 2.22
-1 7 -2 7.49 2.59
-1 7 -3 8.94 3.1
-1 7 -4 -0.66 0.93
-1 7 -5 18.48 4.4
-1 7 -6 7.57 3.03
1 -6 -6 3.93 2.08
1 -6 -6 -0.35 0.99
1 -6 -5 0.97 1.08
1 -6 -5 2.75 1.86
1 -6 -4 8.22 2.72
1 -6 -4 7.8 2.67
1 -6 -3 0.82 0.93
1 -6 -3 0.05 0.91
1 -6 -2 2.21 1.68
1 -6 -2 2.17 1.61
1 -6 -1 22.55 4.31
1 -6 -1 21.47 4.16
-1 6 0 8.52 2.77
1 -6 0 14.29 3.48
-1 6 -1 479.54 20.07
1 -6 1 477.17 20.47
-1 6 -2 5.45 2.22
-1 6 -3 11.78 3.15
-1 6 -4 1.25 1.56
-1 6 -5 25 4.6
-1 6 -6 27.25 4.77
-1 6 -7 -1.03 1.27
-1 6 -8 4.4 2
1 -5 -7 29.97 5.26
1 -5 -6 12.13 3.28
1 -5 -5 -0.1 0.85
1 -5 -5 0.2 0.87
1 -5 -4 26.08 4.32
1 -5 -4 21.62 3.94
1 -5 -3 61.55 6.59
1 -5 -3 75.69 5.89
1 -5 -3 74.89 7.05
1 -5 -2 17.02 2.67
1 -5 -2 11.32 2.83
1 -5 -2 15.92 3.1
1 -5 -1 6.83 2.14
1 -5 -1 9.63 2.52
-1 5 1 11.94 2.79
1 -5 0 7.05 1.85
-1 5 0 7.17 2.03
1 -5 0 8.3 2.31
-1 5 -1 2.6 1.47
1 -5 1 4.75 1.7
-1 5 -2 43.58 5.18
-1 5 -3 43.06 5.14
-1 5 -4 67.14 6.58
-1 5 -5 199.58 11.88
-1 5 -6 64.46 6.75
-1 5 -7 18.86 3.83
-1 5 -8 4.27 1.98
-1 5 -9 3.51 1.94
1 -4 -8 83.8 9.16
1 -4 -7 2.52 1.69
1 -4 -6 5.38 2.24
1 -4 -5 5.04 1.92
1 -4 -5 5.34 1.86
1 -4 -4 6.09 1.99
1 -4 -4 5.07 1.8
1 -4 -3 0.82 0.9
1 -4 -3 -0.24 0.72
1 -4 -2 3.43 1.19
1 -4 -2 5.45 1.71
1 -4 -2 5.57 1.9
1 -4 -2 5.74 1.38
-1 4 1 12.71 2.63
1 -4 -1 13.28 1.86
1 -4 -1 10.57 2.28
1 -4 -1 12.33 2.45
1 -4 -1 9.92 1.91
1 -4 0 3073 56.28
1 -4 0 3021.9 62.44
1 -4 0 3080.04 60.7
-1 4 0 3086.78 62.3
1 -4 0 3025.44 59.93
-1 4 -1 1575.47 36.33
1 -4 1 1524.86 33.86
1 -4 1 1571.05 30.54
1 -4 2 0.68 0.51
1 -4 2 0.99 0.57
-1 4 -2 -0.35 0.67
-1 4 -3 2 1.08
1 -4 3 1.7 0.79
-1 4 -4 10.84 2.43
1 -4 4 9.81 1.72
-1 4 -5 46.04 5.07
1 -4 5 54.32 4.41
-1 4 -6 -1.15 0.97
1 -4 6 1.54 1.11
-1 4 -7 -0.66 0.78
1 -4 7 0.01 0.67
1 -4 8 9.4 2.56
-1 4 -8 8.54 2.37
1 -4 9 35.08 5.38
-1 4 -9 32.39 4.85
-1 3 9 38.32 6.11
1 -3 -9 35.91 6.42
-1 3 8 76.37 8.04
1 -3 -8 57.05 7.36
1 -3 -7 1.09 1.24
-1 3 7 0.31 0.85
-1 3 6 7.51 2.07
1 -3 -6 5.9 1.95
1 -3 -6 4.67 2.16
1 -3 -5 212.05 10.68
1 -3 -5 183.29 10.73
-1 3 5 204.29 10.15
-1 3 4 566.3 16.88
1 -3 -4 543.33 18.38
1 -3 -4 530.19 18.93
1 -3 -3 17.04 3.07
1 -3 -3 27.95 3.43
1 -3 -2 65.37 4.77
1 -3 -2 59.15 5.05
1 -3 -1 17.4 2.52
-1 3 1 19.67 2.77
1 -3 -1 18.61 2.5
1 -3 -1 17.57 1.71
1 -3 -1 16.65 2.17
1 -3 0 0.95 0.49
1 -3 0 5.15 0.9
1 -3 0 4.43 1.25
1 -3 0 4.56 1.25
-1 3 0 3.75 1.2
1 -3 1 8.72 0.98
-1 3 -1 10.16 1.87
1 -3 2 9.26 1.21
-1 3 -2 10.61 1.9
1 -3 3 2.57 0.85
-1 3 -3 3.51 1.3
1 -3 4 644.46 16.52
-1 3 -4 618.35 19.13
1 -3 5 191.84 8.67
-1 3 -5 190.16 9.77
1 -3 6 0.19 0.64
-1 3 -6 0.22 0.52
1 -3 7 11.2 2.46
-1 3 -7 10.51 2.36
1 -3 8 71.17 6.88
-1 3 -8 68.4 6.5
-1 3 -9 20.64 3.8
1 -3 9 23.61 4.36
1 -3 10 13.92 3.93
1 -2 -10 2.51 1.78
-1 2 10 2.4 1.8
-1 2 9 11.01 3.18
1 -2 -9 7.99 3.07
1 -2 -8 36.65 5.08
-1 2 8 38.69 5.43
1 -2 -8 42.52 6.34
1 -2 -7 2.04 2.03
1 -2 -7 3.45 1.69
-1 2 7 3.36 1.68
1 -2 -6 8.59 2.61
-1 2 6 12.88 2.6
1 -2 -6 12.49 2.65
1 -2 -5 217.02 11.03
-1 2 5 247.52 10.47
1 -2 -5 233.67 11.71
-1 2 4 64.52 4.59
1 -2 -4 69.14 5.65
1 -2 -4 55.37 5.34
1 -2 -3 23.56 3.03
1 -2 -3 16.56 2.73
-1 2 3 20.16 2.25
1 -2 -2 19.31 2.58
-1 2 2 20.28 1.92
1 -2 -2 20.1 2.42
1 -2 -1 1951.01 38.72
1 -2 -1 1956.66 38.35
-1 2 1 1950.83 39.33
1 -2 -1 2043.44 39.18
1 -2 0 9961.13 166.24
-1 2 0 9603.71 166.43
1 -2 0 9861.86 162.33
1 -2 0 9999 166.57
1 -2 1 10.18 0.82
-1 2 -1 9.2 1.58
-1 2 -2 50.04 3.89
1 -2 2 53.84 2.87
1 -2 3 1.86 0.77
-1 2 -3 1.64 0.61
-1 2 -3 1.49 0.8
1 -2 4 10.3 1.76
-1 2 -4 8.89 1.46
-1 2 -4 7.68 1.73
1 -2 5 12.92 2.22
-1 2 -5 14.28 2.05
-1 2 -5 12.29 2.23
-1 2 -6 42.07 4.61
-1 2 -6 48.07 3.94
1 -2 6 43.51 4.57
1 -2 7 5.94 1.95
-1 2 -7 8.86 2.25
1 -2 8 169.34 11.36
-1 2 -8 131.47 9.3
-1 2 -9 21.59 3.78
1 -2 9 24.68 4.79
1 -2 10 3.91 2.23
1 -2 10 7.5 2.76
1 -1 -10 53.96 7.37
-1 1 10 61.1 7.8
-1 1 10 61.33 7.82
-1 1 9 2.59 2.18
1 -1 -9 0.66 1.06
-1 1 9 3.12 1.84
-1 1 8 28.93 4.66
1 -1 -8 26.48 4.87
-1 1 8 26.36 4.22
-1 1 7 37.48 4.55
1 -1 -7 43.87 5.6
-1 1 7 42.02 5
1 -1 -7 43.46 5.38
-1 1 6 230.61 10.88
-1 1 6 198.99 9.89
1 -1 -6 230.19 11.97
1 -1 -6 222.35 11.72
-1 1 5 634.39 17.81
1 -1 -5 675.66 20.79
1 -1 -5 645.15 20.75
-1 1 5 641.3 18.35
1 -1 -4 588.01 17.9
-1 1 4 572.66 15.16
-1 1 4 585.31 15.6
1 -1 -4 566.13 18.05
1 -1 -3 360.48 12.74
1 -1 -3 408.81 13.09
-1 1 3 380.2 10.52
-1 1 3 387.35 10.34
-1 1 2 193.97 5.61
1 -1 -2 177.75 7.39
-1 1 2 202.16 5.65
-1 1 1 192.18 4.34
1 -1 -1 160.95 6.33
-1 1 1 177.67 5.43
1 -1 -1 185.96 5.87
-1 1 1 189.14 4.47
1 -1 0 463.93 9.64
-1 1 0 435.45 10.15
1 -1 0 450.57 10.84
1 -1 1 74.54 2.68
-1 1 -1 66.04 3.56
-1 1 -1 69.58 3.06
1 -1 2 78.1 3.7
-1 1 -2 75.71 3.68
-1 1 -2 75.59 4.45
1 -1 3 186.6 7.02
-1 1 -3 190.36 8.46
-1 1 -4 61.88 4.3
1 -1 4 73.57 4.94
-1 1 -4 81.53 5.91
1 -1 5 4.54 1.6
-1 1 -5 4.18 1.84
-1 1 -5 1.12 0.82
-1 1 -6 22.57 2.97
1 -1 6 27.73 3.83
-1 1 -6 26.35 4.46
-1 1 -7 48.53 4.66
-1 1 -7 80.79 7.66
1 -1 7 58.04 6.57
1 -1 7 89.14 7.73
1 -1 8 23.87 4.23
1 -1 8 28.06 5
-1 1 -8 22.8 4.26
-1 1 -8 18.94 3.05
1 -1 9 1.91 1.31
-1 1 -9 0.66 0.75
1 -1 10 16.12 4.24
-1 0 11 1.53 2.04
-1 0 11 5.6 2.64
-1 0 10 34.98 5.42
-1 0 10 40.95 6.25
-1 0 9 76.88 7.75
1 0 -9 75.39 7.81
-1 0 9 69.79 7.03
1 0 -8 22.1 3.89
-1 0 8 26.75 4.14
1 0 -7 0.35 1
-1 0 7 -0.11 0.92
1 0 -7 -0.3 0.81
1 0 -6 153.78 9.09
1 0 -6 137.23 8.99
-1 0 6 134.91 7.71
-1 0 5 281.25 10.55
1 0 -5 264.43 12.07
1 0 -5 285.38 12.06
1 0 -4 25.61 3.34
1 0 -4 28.23 3.3
-1 0 4 32.05 2.94
1 0 -3 285.44 10.86
1 0 -3 293.23 9.86
-1 0 2 2.58 0.7
1 0 -2 3.4 1.19
1 0 -1 3114.22 55.41
-1 0 1 3150.74 53.3
-1 0 0 345.69 7.4
1 0 0 339.45 8.14
-1 0 0 321.52 8.12
1 0 1 639.12 13.07
-1 0 -1 667.43 14.36
1 0 2 197.37 6.13
-1 0 -2 197.02 7.1
1 0 3 9.69 1.6
-1 0 -3 12.59 1.93
1 0 4 7.86 1.72
-1 0 -4 9.48 1.94
1 0 5 6.23 1.91
-1 0 -5 8.59 2
1 0 6 0.83 0.9
-1 0 -6 -0.18 0.66
1 0 7 1.85 1.58
-1 0 -7 -0.23 0.64
-1 0 -8 124.68 9.14
1 0 8 185.91 11.73
-1 0 -9 2.28 1.36
1 0 9 2.36 1.63
1 0 10 -0.79 1.03
-1 -1 11 5.07 2.37
-1 -1 10 1.38 1.3
-1 -1 9 -0.15 0.85
-1 -1 8 -0.17 0.96
1 1 -7 16.78 2.42
-1 -1 7 28.09 3.73
1 1 -7 26.86 3.85
1 1 -6 6.65 1.95
1 1 -6 5.02 1.27
1 1 -6 7.24 2.31
-1 -1 6 7.15 1.97
1 1 -5 15.83 1.86
1 1 -5 14.06 2.44
1 1 -5 12.84 2.93
-1 -1 5 20.23 2.61
1 1 -4 3.53 1.2
1 1 -4 3.29 1.52
1 1 -4 6.58 1.1
-1 -1 4 7.82 1.55
1 1 -3 2.03 1.03
1 1 -3 3.27 0.64
-1 -1 3 2.82 0.77
1 1 -2 264.79 7.13
1 1 -2 267.62 8.65
-1 -1 2 290.52 7.82
-1 -1 1 51.22 2.92
-1 -1 1 53.23 2.45
1 1 -1 55.67 2.85
-1 -1 0 38.82 2.41
1 1 0 39.69 1.8
-1 -1 0 36.99 2.38
-1 -1 -1 55.96 3.53
-1 -1 -1 57.85 2.92
-1 -1 -2 202.76 6.83
1 1 2 216.9 7.39
-1 -1 -2 182.77 7.82
1 1 3 0.35 0.39
-1 -1 -3 0.66 0.71
-1 -1 -4 38.57 4.06
1 1 4 39 3.59
-1 -1 -5 15.21 2.83
1 1 5 21.02 2.97
1 1 6 0.47 0.69
-1 -1 -6 -0.34 0.69
1 1 7 6.33 2.15
-1 -1 -7 9.22 2.54
1 1 8 60.07 6.6
-1 -1 -8 53.73 6.27
1 1 9 -1.24 1.15
-1 -1 -9 -1.56 1.09
-1 -2 11 0.26 1.43
-1 -2 10 0.54 1
-1 -2 9 1.4 0.84
-1 -2 8 71.65 6.26
-1 -2 7 42.9 4.45
1 2 -7 40.78 3.7
-1 -2 6 3.8 1.36
1 2 -6 2.55 0.99
1 2 -5 5.59 1.24
1 2 -5 3.92 1.03
-1 -2 5 7.01 1.55
1 2 -4 1.73 0.65
1 2 -4 1.97 1.17
1 2 -4 3.12 0.87
-1 -2 4 1.42 0.73
1 2 -3 30.74 3.06
-1 -2 3 30.61 2.64
1 2 -3 29.93 2.61
-1 -2 2 1568.62 32.01
1 2 -2 1623.06 31.83
1 2 -2 1634.16 32.83
-1 -2 2 1615.39 28.58
-1 -2 1 148.17 6.24
1 2 -1 157.28 6.83
1 2 -1 160.43 5.09
-1 -2 1 150.5 5.12
-1 -2 0 454.01 11.94
-1 -2 0 412.5 11.74
-1 -2 -1 193.84 7.28
-1 -2 -1 182.67 7.29
-1 -2 -1 205.95 8.11
-1 -2 -2 2.2 0.89
-1 -2 -2 3.36 1.29
-1 -2 -3 34.24 3.44
-1 -2 -3 25.9 3.36
-1 -2 -4 0.36 0.66
1 2 4 1.7 1.03
-1 -2 -5 26.44 3.81
1 2 5 27.96 3.56
1 2 6 185.14 10.27
-1 -2 -6 165.46 10.29
1 2 7 1.37 1.11
-1 -2 -7 1.2 1.33
1 2 8 1.13 1.28
-1 -2 -8 1.52 1.35
-1 -2 -9 10.46 3.24
1 2 9 6.38 2.21
-1 -3 10 4.02 1.86
-1 -3 9 4.03 1.85
-1 -3 8 51.72 5.36
-1 -3 7 84.07 6.34
1 3 -7 85.26 6.01
1 3 -6 99.79 6.3
-1 -3 6 105.08 6.59
-1 -3 5 28.41 3.17
1 3 -5 29.15 3.18
-1 -3 4 0.89 0.74
1 3 -4 -0.17 0.43
-1 -3 3 2.61 1
1 3 -3 2.45 1.09
-1 -3 2 574.07 15.82
1 3 -2 566.34 17.11
-1 -3 2 555.04 12.39
1 3 -1 3.36 1.4
-1 -3 1 5.93 1.4
-1 -3 1 2.51 0.76
-1 -3 0 3.42 1.12
-1 -3 0 5.07 1.21
-1 -3 -1 0.41 0.68
-1 -3 -1 0.43 0.65
-1 -3 -2 57.53 4.86
-1 -3 -2 59.55 4.49
-1 -3 -3 0.37 0.63
-1 -3 -3 1.42 1.13
-1 -3 -4 2 1.14
-1 -3 -4 3.83 1.6
-1 -3 -5 1.88 1.1
-1 -3 -6 5.18 2.06
-1 -3 -7 39.51 5.38
-1 -3 -8 2.92 1.62
-1 -4 10 0.83 1.55
-1 -4 9 33.5 4.74
-1 -4 8 48.9 5.27
1 4 -7 273.63 12.62
-1 -4 7 269.48 12.39
1 4 -6 36.44 4.32
-1 -4 6 38.18 4.17
1 4 -5 0.62 0.76
-1 -4 5 -0.22 0.6
1 4 -4 11.86 2.31
-1 -4 4 11.1 2.08
-1 -4 3 654.36 18.51
1 4 -3 644.46 20.28
-1 -4 2 169.88 8.41
1 4 -2 165.08 9.4
-1 -4 2 175.79 6.58
-1 -4 1 1.47 0.89
-1 -4 1 1.2 0.75
-1 -4 0 14.98 2.51
-1 -4 0 21.07 3.62
-1 -4 0 20.24 2.78
-1 -4 -1 54.07 4.87
-1 -4 -1 49.74 5.2
-1 -4 -1 49.42 4.66
-1 -4 -2 29.46 3.9
-1 -4 -2 25.34 3.51
-1 -4 -2 25.56 3.38
-1 -4 -3 0.59 0.84
-1 -4 -3 0.84 0.87
-1 -4 -3 1.64 1.26
-1 -4 -4 22.32 3.77
-1 -4 -4 19.04 3.21
-1 -4 -5 115.02 8.49
-1 -4 -5 124.08 8.86
-1 -4 -6 381.57 16.97
-1 -4 -7 9.34 2.74
-1 -5 9 3.1 1.53
-1 -5 8 111.15 8.61
1 5 -7 79.08 7.24
-1 -5 7 79.97 6.85
-1 -5 6 2.18 1.34
1 5 -6 1.05 1.12
1 5 -5 26.13 4.02
-1 -5 5 28.08 3.63
1 5 -4 77.11 6.85
-1 -5 4 70.76 5.7
1 5 -3 203.14 11.44
-1 -5 3 185.07 9.39
-1 -5 2 92.74 6.69
1 5 -2 86.6 7.47
-1 -5 1 88.05 6.9
-1 -5 0 71.2 7.62
-1 -5 0 70.01 6.04
-1 -5 0 79.64 6.57
-1 -5 -1 187.58 10.59
-1 -5 -1 175.17 10.08
-1 -5 -1 169.48 11.46
-1 -5 -2 134.07 8.81
-1 -5 -2 109.19 8.93
-1 -5 -2 117.8 8.42
-1 -5 -3 9.06 2.38
-1 -5 -3 3.29 1.9
-1 -5 -3 5.44 1.89
-1 -5 -4 2.98 1.59
-1 -5 -4 0.99 0.97
-1 -5 -4 1.82 1.23
-1 -5 -5 2.16 1.45
-1 -5 -5 2.87 1.49
-1 -5 -5 4.02 1.77
-1 -5 -6 1.65 1.45
-1 -6 8 332.35 16.39
1 6 -7 101.86 9.09
-1 -6 7 95.07 7.95
-1 -6 6 1.55 1.24
1 6 -6 1.09 0.94
-1 -6 5 9.87 2.35
1 6 -5 15.39 3.42
-1 -6 4 19.96 3.18
1 6 -4 16.69 3.56
-1 -6 3 178.52 9.88
1 6 -3 157.8 11.05
-1 -6 2 6.17 2.14
-1 -6 1 10.2 3.09
-1 -6 1 13.88 3
-1 -6 0 32.57 4.74
-1 -6 0 28.54 5.28
-1 -6 -1 11.46 3.17
-1 -6 -1 15.05 3.42
-1 -6 -2 2.59 1.65
-1 -6 -2 0.25 1.19
-1 -6 -2 1.41 1.6
-1 -6 -3 2.12 1.51
-1 -6 -3 1.83 1.64
-1 -6 -4 13.92 3.72
-1 -6 -4 16.14 3.57
-1 -6 -4 14.75 3.45
-1 -6 -5 405.56 20.36
-1 -6 -5 358.8 17.88
-1 -6 -5 398.39 18.25
1 7 -6 4.68 2.19
1 7 -5 10.07 3.11
1 7 -4 32.81 5.45
-1 -7 1 0.29 1.06
-1 -7 0 122.5 11.87
-1 -7 -1 95.71 10.88
-1 -7 -2 1.94 1.86
-1 -7 -3 1.4 1.84
2 -8 -1 7.14 2.98
2 -8 0 94.32 9.93
-2 8 0 77.82 9.29
-2 8 -1 272.52 17.78
2 -8 1 276.52 16.68
-2 8 -2 6.22 2.91
2 -8 2 7.68 2.67
2 -7 -4 43.88 6.96
2 -7 -4 56.63 7.74
2 -7 -3 22.41 5
2 -7 -3 34.78 6.07
2 -7 -2 7.75 2.89
2 -7 -1 3.05 2.11
-2 7 1 1.31 1.18
2 -7 0 -0.08 0.86
-2 7 0 1.91 1.51
2 -7 1 2.08 1.42
-2 7 -1 3.35 1.85
-2 7 -2 0.86 1.29
2 -7 2 0.47 0.85
2 -7 3 7.67 2.63
-2 7 -3 9.74 3.21
-2 7 -4 59.88 8.29
-2 7 -5 79.76 9.43
-2 7 -6 9.22 3.03
2 -6 -6 4.26 2.27
2 -6 -5 7.67 3.11
2 -6 -5 9.17 2.79
2 -6 -4 14.21 3.83
2 -6 -4 22.74 4.44
2 -6 -3 8.26 2.7
2 -6 -3 5.04 2.59
2 -6 -2 0.98 1.56
2 -6 -2 -0.34 1
2 -6 -1 36.29 5.25
-2 6 1 27.72 4.69
2 -6 -1 30.55 5.11
2 -6 0 1123.87 33.02
-2 6 0 1006.97 32.02
2 -6 1 214.24 12.47
-2 6 -1 190.08 12.2
2 -6 2 6.11 2.06
-2 6 -2 7.49 2.6
2 -6 2 5.73 1.95
-2 6 -3 -0.71 1.27
-2 6 -4 -0.1 0.76
-2 6 -5 4.88 2.25
-2 6 -6 3.4 1.94
-2 6 -7 -1.4 1.57
2 -5 -8 13.22 3.96
2 -5 -7 4.14 2.28
2 -5 -6 2.32 1.56
2 -5 -5 104.32 9.83
2 -5 -5 107.8 8.84
2 -5 -4 140.47 11.11
2 -5 -4 136.92 10.04
2 -5 -3 3.72 2.11
2 -5 -3 2.29 1.29
2 -5 -2 1.76 1.12
2 -5 -2 2.73 1.5
-2 5 2 3.61 1.56
2 -5 -1 16.88 3.42
-2 5 1 15.29 3.1
2 -5 -1 14.49 2.96
2 -5 -1 14.95 3.28
2 -5 0 40.95 4.93
2 -5 0 48.51 5.2
2 -5 0 47.42 5.76
-2 5 0 45.83 5.25
2 -5 1 10.21 2.26
2 -5 1 10.51 2.53
-2 5 -1 12.71 2.89
2 -5 1 9.09 2.45
-2 5 -2 0.34 0.85
-2 5 -3 4.18 1.75
-2 5 -4 119.07 9.3
-2 5 -5 10.19 2.83
-2 5 -6 1.47 1.39
-2 5 -7 0.04 0.71
-2 5 -8 34.61 5.4
2 -4 -9 5.13 2.84
-2 4 9 8.99 3.33
2 -4 -8 3.19 1.9
-2 4 8 4.47 1.99
2 -4 -7 1.88 1.76
-2 4 7 1.06 1.21
-2 4 6 1.51 1.38
2 -4 -6 -1.67 1.4
2 -4 -5 134.26 9.68
2 -4 -5 118.75 9.99
2 -4 -4 27.48 4.04
2 -4 -4 25.87 4.16
2 -4 -4 28.66 4.76
2 -4 -3 2.89 1.49
2 -4 -3 0.8 1.23
2 -4 -3 1.44 0.87
2 -4 -2 21.97 3.88
2 -4 -2 20.75 3.43
2 -4 -2 26.14 3.6
-2 4 2 28.75 3.88
2 -4 -1 409.32 14.78
2 -4 -1 444.56 16.66
-2 4 1 437.15 15.69
2 -4 -1 395.39 15.85
2 -4 0 918.12 24.72
2 -4 0 981.76 27.26
-2 4 0 943.42 25.71
2 -4 1 126.94 8.22
2 -4 1 123.3 7.49
-2 4 -1 125.34 7.98
-2 4 -2 1.42 0.99
-2 4 -3 2.92 1.42
-2 4 -4 2.07 1.26
-2 4 -5 0.36 1.06
-2 4 -6 15.92 3.23
-2 4 -7 5.03 2.01
-2 4 -8 94.65 8.6
-2 4 -9 4.8 2.05
2 -3 -9 0.62 1.55
-2 3 9 -0.56 1.28
2 -3 -8 1.69 1.66
2 -3 -8 6.44 2.33
-2 3 8 6.62 2.42
-2 3 7 12.56 3.1
2 -3 -7 10.96 3.01
2 -3 -6 45.82 5.69
-2 3 6 44.74 5.12
2 -3 -6 39.42 5.91
-2 3 5 26.88 3.51
2 -3 -5 32.59 4.61
2 -3 -5 27.8 4.74
2 -3 -4 20.13 3.24
-2 3 4 24.18 2.88
2 -3 -4 34.39 4.5
2 -3 -4 27.37 4.57
-2 3 3 30.58 2.74
2 -3 -3 33.95 4.31
2 -3 -3 35.26 4.09
2 -3 -3 32.86 4.65
2 -3 -2 117.01 6.96
-2 3 2 129.86 7.24
2 -3 -2 114.98 7.6
2 -3 -1 8.68 0.84
-2 3 1 10.96 2.11
2 -3 -1 13.8 2.1
2 -3 -1 11.35 2.28
2 -3 0 130.95 6.38
-2 3 0 132.89 6.94
2 -3 0 139.32 7.8
-2 3 -1 28.83 3.24
2 -3 1 19.94 1.21
-2 3 -2 29.5 3.53
2 -3 2 29.45 2.21
2 -3 3 10.29 1.73
-2 3 -3 9 2.11
2 -3 4 8.62 1.9
-2 3 -4 8.01 2
2 -3 5 3.34 1.38
-2 3 -5 0.91 0.98
2 -3 6 -0.15 0.87
-2 3 -6 -0.49 1.18
-2 3 -7 38.52 5.12
2 -3 7 45.18 5.69
2 -3 8 5.39 2.15
-2 3 -8 5.03 1.9
2 -3 9 1.05 1.29
-2 3 -9 1.16 0.86
2 -3 9 0.4 0.79
2 -2 -10 8.56 3.23
2 -2 -10 1.65 1.92
-2 2 10 6.4 2.74
2 -2 -9 24.26 5.16
-2 2 9 45.4 6.53
2 -2 -9 28.91 5.04
-2 2 9 40.84 6.07
-2 2 8 71.57 7.6
-2 2 8 66.46 6.95
2 -2 -8 56.63 6.93
2 -2 -8 58.2 7.53
-2 2 7 0 0.99
2 -2 -7 1.31 1.59
-2 2 7 3.84 1.75
2 -2 -7 3.2 1.76
-2 2 6 17.82 3.06
2 -2 -6 13.65 3.32
2 -2 -6 15.77 3.3
-2 2 6 18.66 3.11
-2 2 5 14 2.4
2 -2 -5 9.39 2.75
-2 2 5 12.02 2.23
2 -2 -5 17.98 3.38
2 -2 -4 0.9 0.99
-2 2 4 0.16 0.39
2 -2 -4 0 0.76
-2 2 4 0.19 0.45
-2 2 3 52.57 3.43
2 -2 -3 49.59 4.9
-2 2 3 51.06 3.22
2 -2 -2 268.12 11.47
-2 2 2 296.71 9.61
2 -2 -2 265.94 9.64
-2 2 2 278.33 7.14
-2 2 2 264.77 7.33
2 -2 -1 86.91 4.65
2 -2 -1 83.99 5.54
-2 2 1 77.74 4.22
2 -2 0 75.03 5.04
2 -2 0 77.26 3.91
-2 2 0 80.73 4.69
-2 2 -1 3.76 1.23
-2 2 -2 119.26 6.31
-2 2 -3 4.66 1.22
2 -2 3 7.83 1.63
-2 2 -3 7.93 1.85
-2 2 -4 9.74 1.9
-2 2 -4 11.5 2.25
2 -2 4 12.46 2.26
2 -2 5 35.68 4.21
-2 2 -5 31.86 4.18
-2 2 -5 28.57 3.3
-2 2 -6 26.52 3.31
-2 2 -6 26.47 4.11
2 -2 6 32.94 4.53
2 -2 7 12.1 2.67
-2 2 -7 8.98 2.74
-2 2 -8 28.48 4.84
2 -2 8 19.95 3.65
2 -2 9 12.86 3.19
-2 2 -9 11.81 3.29
2 -1 -10 5.37 2.52
-2 1 10 5.93 2.55
2 -1 -10 3.63 1.91
-2 1 10 9.95 2.98
2 -1 -9 1.8 1.55
2 -1 -9 1.68 1.56
-2 1 9 1.21 1.18
-2 1 9 -1.42 1.36
2 -1 -8 0.61 0.93
-2 1 8 7.05 2.25
2 -1 -8 1.59 1.5
-2 1 8 6.29 2.11
2 -1 -7 65.1 7.34
2 -1 -7 76.05 7.63
-2 1 7 83.52 6.77
2 -1 -6 68.32 6.73
2 -1 -6 67.71 6.91
-2 1 6 64.49 5.43
2 -1 -5 1.35 1.27
-2 1 5 0.47 0.86
2 -1 -5 0.46 0.85
-2 1 4 19.85 2.34
2 -1 -4 19.45 3.2
2 -1 -3 5.08 1.67
-2 1 3 4.22 0.99
2 -1 -2 92.34 5.9
-2 1 2 92.86 3.56
-2 1 2 88 3.55
2 -1 -1 109.6 6.04
-2 1 1 109.63 4.21
-2 1 1 99.66 3.29
-2 1 0 46.06 2.15
2 -1 0 41.28 2.03
2 -1 0 50.42 3.71
-2 1 0 50.68 3.19
2 -1 1 1.83 0.48
-2 1 -1 2.13 0.83
-2 1 -1 1.85 0.79
-2 1 -2 25.59 3.08
-2 1 -2 21.4 2.4
2 -1 2 21.26 1.78
2 -1 3 2.42 0.88
-2 1 -3 3.75 1.13
2 -1 4 6.43 1.42
-2 1 -4 3.29 1.23
-2 1 -5 31.9 3.7
2 -1 5 28.98 3.34
2 -1 6 -0.79 1.03
-2 1 -6 1.63 1.11
2 -1 7 13.8 2.9
-2 1 -7 7.58 1.97
-2 1 -7 13.16 3.6
-2 1 -8 57.7 7.34
2 -1 8 50.3 6.36
-2 1 -8 48.37 5.26
-2 1 -9 5.78 2.45
2 -1 9 8.89 2.83
-2 0 11 2.92 2.09
-2 0 11 7.37 2.75
-2 0 10 9.59 3.05
2 0 -9 11.5 3.32
-2 0 9 10.92 2.83
2 0 -9 12.51 3.44
2 0 -8 24.68 4.51
-2 0 8 22.17 3.57
2 0 -8 27.69 4.71
2 0 -7 461.25 19.22
-2 0 7 481.63 16.85
2 0 -6 66.57 6.6
2 0 -6 63.2 6.26
-2 0 6 68.97 5.47
2 0 -5 17.01 3.07
2 0 -5 13.82 2.93
2 0 -5 11.32 1.16
-2 0 5 15.96 2.36
-2 0 4 11.99 1.79
2 0 -4 6.5 0.59
2 0 -4 10.58 2.39
2 0 -3 439.1 14.61
-2 0 3 445.59 11.65
2 0 -2 1934.62 39.58
-2 0 2 1923.59 35.78
-2 0 1 57.59 3.24
2 0 -1 64.55 4.3
-2 0 0 189.97 6.36
-2 0 0 216.36 7.5
2 0 0 210.8 7.64
-2 0 -1 362.75 11
2 0 2 82.39 4.29
-2 0 -2 81.53 4.99
2 0 3 19 2.21
-2 0 -3 20.31 2.68
2 0 4 11.05 1.94
-2 0 -4 10.78 2.18
2 0 5 -0.13 0.48
-2 0 -5 -0.02 0.59
-2 0 -6 602.77 20.19
2 0 6 611.12 20.01
2 0 7 48.46 5.42
-2 0 -7 38.42 4.76
2 0 8 10 2.62
-2 0 -8 12.12 2.91
2 0 9 -0.43 1.19
-2 0 -9 1.93 1.37
-2 -1 11 44.41 6.4
-2 -1 10 9.99 2.9
-2 -1 9 3.08 1.71
2 1 -9 2.11 1.94
2 1 -8 204.53 12.8
-2 -1 8 155.09 9.61
2 1 -7 194.62 11.72
2 1 -7 163.71 10.32
-2 -1 7 180.84 9.44
2 1 -6 123.64 8.77
2 1 -6 126.67 8.44
-2 -1 6 127.03 7.37
2 1 -5 114.35 7.97
2 1 -5 93.37 3.89
2 1 -5 101.01 6.6
-2 -1 5 117.77 6.29
2 1 -4 39.52 4.21
2 1 -4 44.72 2.5
-2 -1 4 49.07 3.67
2 1 -3 400.76 13.49
-2 -1 3 426.69 11.93
2 1 -2 1583.95 33.11
-2 -1 2 1575.59 31.84
-2 -1 1 277.85 9.02
2 1 -1 280.67 8.92
-2 -1 1 269.04 8.67
-2 -1 0 0.77 0.58
2 1 0 0.25 0.46
-2 -1 0 0.7 0.56
-2 -1 -1 206.3 7.75
-2 -1 -1 194.21 6.2
-2 -1 -1 185.96 7.83
2 1 1 205.57 6.85
-2 -1 -2 602.97 14.27
-2 -1 -2 598.49 17.13
-2 -1 -3 0.87 0.82
2 1 4 4.25 1.34
-2 -1 -4 2.77 1.29
2 1 5 1.38 0.67
-2 -1 -5 -0.55 0.99
2 1 6 1.06 1.05
-2 -1 -6 3.98 1.54
-2 -1 -7 32.07 4.69
2 1 7 36.92 4.94
2 1 8 13.8 3.45
-2 -1 -8 9.94 2.78
2 1 9 0.33 0.88
-2 -1 -9 2.49 1.67
-2 -2 11 1.83 2.01
-2 -2 10 1.76 1.51
-2 -2 9 18.52 3.58
-2 -2 8 394.63 15.73
2 2 -7 680.84 22.7
-2 -2 7 598.51 19.39
2 2 -6 30.79 4.13
2 2 -6 27.12 2.64
-2 -2 6 34.33 3.76
2 2 -5 28.17 3.8
2 2 -5 39.7 3.24
-2 -2 5 36.68 3.64
2 2 -4 23.96 3.2
2 2 -4 25.62 2.58
-2 -2 4 29 3.03
2 2 -3 1054.55 25.05
2 2 -3 1061.1 23.79
-2 -2 3 1065.33 24.48
-2 -2 2 15.85 2.26
2 2 -2 17.87 2.12
-2 -2 2 15.46 1.72
-2 -2 1 1.15 0.84
-2 -2 1 0.57 0.47
2 2 -1 1.53 0.65
2 2 0 2.2 0.58
-2 -2 0 3.83 1.15
-2 -2 0 3.44 1.08
-2 -2 -1 131.06 6.69
-2 -2 -1 129.19 6.14
-2 -2 -1 135.99 7.1
2 2 1 123.87 4.64
-2 -2 -2 4.18 1.34
-2 -2 -2 4.72 1.28
-2 -2 -2 2.42 1.13
-2 -2 -3 21.19 2.65
-2 -2 -3 17.28 2.87
-2 -2 -4 2.84 1.23
-2 -2 -5 581.39 20.53
-2 -2 -6 660.32 23.17
-2 -2 -7 1.08 1.24
-2 -2 -8 2.41 1.85
-2 -3 10 7.79 2.73
-2 -3 9 6.05 2.2
-2 -3 8 77.94 6.78
-2 -3 7 50.04 4.98
2 3 -6 3.85 1.24
-2 -3 6 3.36 1.34
-2 -3 5 2.63 1.08
2 3 -5 0.75 1.14
2 3 -5 2.42 0.94
2 3 -4 355.46 12.93
2 3 -4 368.05 13.23
-2 -3 4 360.46 12.83
2 3 -3 378.51 12.51
2 3 -3 407.38 14.06
-2 -3 3 399.44 13.61
-2 -3 2 10.37 1.94
-2 -3 2 10.86 1.58
2 3 -2 9.77 1.58
-2 -3 1 120.12 6.98
2 3 -1 131.51 5
-2 -3 1 129.37 6.37
-2 -3 0 564.51 17.51
-2 -3 0 601 17.27
-2 -3 -1 616.43 18.52
-2 -3 -1 654.79 19.17
-2 -3 -2 171.31 8.71
-2 -3 -2 153.87 8.8
-2 -3 -3 37.96 4.14
-2 -3 -3 44.18 4.44
-2 -3 -3 48.61 5.03
-2 -3 -4 3.02 1.18
-2 -3 -4 1.7 1.02
-2 -3 -5 3.29 1.62
-2 -3 -6 8.74 2.3
-2 -3 -7 2.28 1.54
-2 -3 -8 14.29 3.53
-2 -4 10 0.85 1.43
-2 -4 9 39.9 5.42
-2 -4 8 571.07 21.03
-2 -4 7 34.3 4.34
-2 -4 6 17.64 3.12
2 4 -6 14.71 2.86
-2 -4 5 5.02 1.64
2 4 -5 3.87 1.52
-2 -4 4 1.32 0.91
2 4 -4 1.11 0.99
-2 -4 3 157.23 8.71
-2 -4 2 70.25 5.78
-2 -4 2 85.67 5.05
-2 -4 1 43.71 4.56
-2 -4 1 53.04 4.46
-2 -4 0 203.28 10.52
-2 -4 0 203.35 11.82
-2 -4 0 220.47 10.34
-2 -4 -1 56.56 5.37
-2 -4 -1 47.19 5.17
-2 -4 -1 60.34 5.51
-2 -4 -2 3.85 1.47
-2 -4 -2 6.01 1.67
-2 -4 -2 2.12 1.34
-2 -4 -3 -0.72 0.82
-2 -4 -3 -1.88 1.24
-2 -4 -3 1.65 1.2
-2 -4 -4 61.88 6.19
-2 -4 -4 66.84 6.43
-2 -4 -4 52.1 5.36
-2 -4 -5 495.96 19.56
-2 -4 -5 482.14 18.64
-2 -4 -6 6.87 2.38
-2 -4 -7 7.96 2.6
-2 -5 9 1.41 1.11
-2 -5 8 4.95 2.08
-2 -5 7 12.8 2.74
-2 -5 6 1.4 1.05
2 5 -6 5.06 1.9
2 5 -5 41.06 5.26
-2 -5 5 43.06 4.97
-2 -5 4 13.06 2.69
2 5 -4 15.77 3.27
-2 -5 3 16.06 3
-2 -5 2 39.37 4.77
-2 -5 1 43.75 5.15
-2 -5 0 156.89 10.13
-2 -5 0 144.12 11.07
-2 -5 0 155.83 9.59
-2 -5 -1 67.63 6.71
-2 -5 -1 63.6 7
-2 -5 -1 73.91 6.78
-2 -5 -2 10.55 2.81
-2 -5 -2 8.35 2.4
-2 -5 -2 10.54 2.64
-2 -5 -3 0.73 0.92
-2 -5 -3 0.27 0.76
-2 -5 -4 5.1 1.99
-2 -5 -4 8.45 2.48
-2 -5 -4 8.18 2.45
-2 -5 -5 14.97 3.26
-2 -5 -5 13.09 3.1
-2 -5 -5 18.37 3.75
-2 -6 8 42.06 5.71
-2 -6 7 11.56 3.04
-2 -6 6 0.25 1.01
2 6 -6 0.2 1.17
-2 -6 5 9.93 2.55
2 6 -5 10.6 3.15
-2 -6 4 30.26 4.32
-2 -6 3 1.37 1.17
-2 -6 2 4.34 1.88
-2 -6 1 0.16 0.88
-2 -6 1 0.02 1.13
-2 -6 0 79.89 8
-2 -6 0 74.03 8.72
-2 -6 -1 0.59 0.9
-2 -6 -1 -0.13 1.14
-2 -6 -2 0.69 1.24
-2 -6 -2 1.98 1.94
-2 -6 -2 1.21 1.18
-2 -6 -3 -2.01 1.78
-2 -6 -3 1 1.51
-2 -6 -3 -1.1 1.2
-2 -6 -4 18.75 4.26
-2 -6 -4 14.13 3.38
-2 -6 -4 12.01 3.23
-2 -7 6 -0.37 1.27
-2 -7 5 2.98 1.52
-2 -7 4 0.76 1
-2 -7 3 2.16 1.88
-2 -7 2 12.2 3.27
-2 -7 1 0.08 1.63
-2 -7 1 -1.33 1.43
-2 -7 0 4.25 2.24
-2 -7 0 3.67 1.89
-2 -7 -1 0.37 1.31
-2 -7 -1 0.83 1.62
3 -7 -4 10.04 3.65
3 -7 -4 16 4.05
3 -7 -3 4.11 2.7
3 -7 -3 1.28 1.24
3 -7 -2 -0.98 1.16
-3 7 2 0.26 1.01
-3 7 1 4.31 2.04
3 -7 -1 5.85 2.47
3 -7 0 45.97 6.28
-3 7 0 26.52 5.22
3 -7 1 1.84 1.48
-3 7 -1 0.22 1.34
3 -7 2 0.68 0.79
-3 7 -2 1.6 1.32
-3 7 -3 7.34 2.95
3 -7 4 10.6 3.46
-3 7 -4 10 3.35
-3 7 -5 0.73 1.39
3 -6 -6 3.44 2.3
3 -6 -5 26.46 5.62
3 -6 -5 24.3 4.58
3 -6 -4 3.02 1.6
3 -6 -4 -0.88 1.27
3 -6 -3 16.8 4.26
3 -6 -3 23.41 4.4
3 -6 -2 0.12 1.27
3 -6 -2 0.13 0.74
-3 6 2 1.53 1.17
3 -6 -1 28.88 5.23
3 -6 -1 27.62 4.52
-3 6 1 38.96 5.48
3 -6 0 117.42 9.13
3 -6 0 107.31 10.54
-3 6 0 113.31 9.84
3 -6 1 35.82 4.88
3 -6 1 37.45 5.84
-3 6 -1 42.24 6.06
-3 6 -2 12.3 3.32
3 -6 2 11.37 3
3 -6 2 11.18 2.77
3 -6 3 -0.05 0.94
3 -6 3 0.41 0.83
-3 6 -3 0.93 1.83
-3 6 -4 1.43 1.52
-3 6 -5 -0.29 0.76
-3 6 -6 2.96 1.68
3 -5 -8 1.87 1.62
3 -5 -7 3.85 2.42
3 -5 -6 -1.24 1.38
3 -5 -5 1.45 1.71
3 -5 -4 0.9 1.37
3 -5 -4 2.62 1.42
3 -5 -3 0.01 1.23
3 -5 -3 0.85 0.78
-3 5 3 0.46 1.03
3 -5 -2 2.43 1.75
3 -5 -2 7.17 2.93
3 -5 -2 3.73 1.58
-3 5 2 4.72 1.85
3 -5 -1 5.33 2.34
3 -5 -1 3.83 1.76
-3 5 1 5.51 1.96
3 -5 0 23.3 3.54
3 -5 0 24.26 4.51
-3 5 0 24.33 4.19
3 -5 1 3.96 1.92
3 -5 1 3.33 1.37
-3 5 -1 2.69 1.39
-3 5 -2 2.16 1.66
3 -5 2 2.87 1.19
3 -5 2 4.42 2.06
-3 5 -3 2.85 1.39
-3 5 -4 4.4 2.02
-3 5 -5 5.63 2.09
-3 5 -6 5.18 2.06
-3 5 -7 4.66 2.32
3 -4 -9 2.66 2.2
-3 4 9 0.83 0.98
3 -4 -8 30.71 6.06
-3 4 8 48.9 6.55
3 -4 -7 33.73 6.46
-3 4 7 50.81 6.25
3 -4 -7 39.81 5.99
3 -4 -6 13.42 3.76
-3 4 6 14.19 2.97
3 -4 -6 16.04 3.91
3 -4 -5 4.32 2.22
3 -4 -5 3.6 1.65
3 -4 -4 0.06 1.11
3 -4 -4 -0.86 1.39
3 -4 -4 1.9 1.2
3 -4 -3 0.81 1.37
3 -4 -3 1.1 1.6
3 -4 -3 1.87 1.2
-3 4 3 2.54 1.13
3 -4 -2 270.17 12.49
-3 4 2 301.14 12.92
3 -4 -2 282.57 14.9
3 -4 -1 -0.11 0.98
-3 4 1 -0.36 0.92
3 -4 -1 1.12 0.91
3 -4 0 42.67 4.15
3 -4 0 40.7 5.33
-3 4 0 36.2 4.4
3 -4 1 21.84 2.97
-3 4 -1 20.55 3.49
3 -4 1 14.71 3.25
-3 4 -2 14.97 2.95
-3 4 -3 15.14 2.97
-3 4 -4 0.03 0.9
-3 4 -5 17.57 3.45
-3 4 -6 123.47 9.43
-3 4 -7 52.85 6.45
-3 4 -8 0.8 1.53
3 -3 -9 -1.77 1.66
3 -3 -9 2.45 1.76
-3 3 9 2.84 1.95
3 -3 -8 21.35 5.2
3 -3 -8 16.65 3.86
-3 3 8 17.15 3.56
-3 3 8 17.38 3.44
3 -3 -7 74.78 8
-3 3 7 80.84 7.05
-3 3 7 78.71 7.12
3 -3 -7 62 8.16
-3 3 6 79.7 6.59
3 -3 -6 69.22 7.48
3 -3 -6 74.34 8.7
-3 3 6 69.3 5.94
-3 3 5 3.18 1.26
3 -3 -5 2.37 1.61
-3 3 5 2.84 1.2
3 -3 -5 2.47 1.94
-3 3 4 3.07 1
3 -3 -4 4.38 1.94
3 -3 -4 2.77 1.68
-3 3 4 4.69 1.19
3 -3 -3 32.75 4.76
-3 3 3 26.12 2.31
-3 3 3 38.45 3.85
-3 3 3 27.03 2.3
3 -3 -3 17.88 2.9
3 -3 -2 280.06 13.79
-3 3 2 292.2 11.28
3 -3 -2 270.49 11.25
3 -3 -1 12.91 2.14
3 -3 -1 9.53 2.48
-3 3 1 12.25 2.21
3 -3 0 41.87 3.53
3 -3 0 34.18 4.52
-3 3 0 38.54 4.07
3 -3 1 13.75 1.92
-3 3 -1 10.14 2.2
3 -3 1 10.1 2.6
-3 3 -2 41.19 4.27
-3 3 -3 22.62 3.27
-3 3 -4 0.1 0.69
-3 3 -5 11.04 2.57
-3 3 -6 -2.23 1.45
-3 3 -7 17.14 3.61
-3 3 -8 11.52 3.22
-3 2 10 0.15 1.18
-3 2 10 0.02 1.31
3 -2 -10 -0.93 1.69
-3 2 9 22.65 4.49
3 -2 -9 21.45 5.06
-3 2 9 24.1 4.44
3 -2 -9 21.29 4.57
-3 2 8 28.25 4.43
3 -2 -8 24.53 5.29
-3 2 8 31.27 4.52
3 -2 -8 30.27 5.25
-3 2 7 640.69 20.67
3 -2 -7 590.63 23.8
3 -2 -7 597.12 26.04
-3 2 7 614.16 20.85
3 -2 -6 61.12 6.92
-3 2 6 73.43 5.64
3 -2 -6 82.62 8.5
-3 2 6 77.17 5.95
3 -2 -5 1.46 1.49
-3 2 5 0.68 0.7
3 -2 -5 -1.09 1.45
-3 2 5 1 0.89
3 -2 -4 18.1 3.54
-3 2 4 22.38 2.43
-3 2 4 20.29 2.32
3 -2 -3 312.12 14.4
-3 2 3 309.93 9.02
-3 2 3 317.04 10.01
-3 2 3 292.12 8.84
-3 2 2 347.06 8.39
3 -2 -2 376.16 15.33
-3 2 2 374.93 11.04
-3 2 2 361.6 8.69
3 -2 -1 37.54 4.24
-3 2 1 34.91 3.16
3 -2 -1 25.79 2.41
-3 2 1 28.01 1.52
-3 2 0 40.61 2.11
3 -2 0 46.28 2.96
3 -2 0 43.75 4.53
-3 2 0 52.55 4.08
-3 2 -1 127.1 4.62
3 -2 1 159.16 5.31
3 -2 1 139.16 8.27
-3 2 -1 156.31 7.44
3 -2 2 18.88 1.75
-3 2 -2 21.58 2.8
-3 2 -3 0.28 0.76
3 -2 3 2.4 0.7
-3 2 -3 2.37 1.11
-3 2 -4 17.43 3.14
-3 2 -4 16.39 2.75
3 -2 4 21.23 2.54
3 -2 5 88.73 6.03
-3 2 -5 93.18 6.82
-3 2 -5 87.18 7.61
-3 2 -6 974.96 30.93
-3 2 -6 982.9 27.26
3 -2 6 914.1 26.25
-3 2 -7 45.23 6.16
-3 2 -8 4.69 2.17
-3 2 -9 -0.54 1.13
3 -1 -10 12.37 4.08
-3 1 10 15.92 4.09
3 -1 -10 16.68 4.22
-3 1 10 20.51 4.33
3 -1 -9 -2.66 1.93
-3 1 9 0.01 1.18
3 -1 -9 0.76 1.24
3 -1 -8 113.41 10.74
3 -1 -8 109.63 9.69
-3 1 8 116.83 8.7
3 -1 -7 62.3 6.98
3 -1 -7 61.23 7.53
-3 1 7 65.91 5.96
-3 1 6 16.8 2.78
3 -1 -6 17.97 3.8
3 -1 -6 22.07 3.94
3 -1 -5 48.36 5.52
-3 1 5 51.59 4.3
3 -1 -4 208.3 11.37
-3 1 4 206.73 8.09
3 -1 -3 476.83 17.36
-3 1 3 433.76 10.04
-3 1 3 460.22 12.05
-3 1 2 408.78 10.38
-3 1 2 385.06 10.42
3 -1 -1 296.38 12.16
-3 1 1 283.55 9.08
-3 1 1 296.46 8.61
-3 1 0 111.06 4.72
3 -1 0 112.73 6.8
-3 1 0 111.48 5.78
-3 1 -1 495.77 13.01
3 -1 1 495.85 16.01
-3 1 -1 543.95 15.33
-3 1 -1 495.68 15.45
-3 1 -2 668.7 18.78
3 -1 3 9.44 1.63
-3 1 -3 6.07 1.68
3 -1 4 -0.25 0.54
-3 1 -4 0.33 0.69
3 -1 5 0.08 0.57
-3 1 -5 0.79 1.11
3 -1 6 8.17 2.1
-3 1 -6 9.32 2.27
3 -1 7 5.06 1.88
-3 1 -7 4.68 1.68
-3 1 -7 5.89 2.57
-3 1 -8 27.81 4.28
3 -1 8 28.03 4.67
-3 1 -8 32.53 5.67
-3 0 11 4.1 2.18
3 0 -11 7.71 2.9
-3 0 10 3.78 1.96
3 0 -10 2.62 1.64
3 0 -9 1.38 1.1
-3 0 9 1.98 1.42
3 0 -9 -0.57 1.42
3 0 -8 838.36 28.87
3 0 -8 794.02 29.61
-3 0 8 807.85 25.52
3 0 -7 409.42 18.2
3 0 -7 413.24 18.99
-3 0 7 411.02 15.62
-3 0 6 1.62 1.07
3 0 -6 1.55 1.39
3 0 -5 43.51 5.12
-3 0 5 39.93 3.84
3 0 -4 1.05 1.19
-3 0 4 0.11 0.63
3 0 -3 530.53 17.56
-3 0 3 488.61 13.68
3 0 -2 52.35 4.92
-3 0 2 55.24 3.75
-3 0 1 29.01 2.74
3 0 -1 37.51 3.91
-3 0 0 22.76 2.45
-3 0 0 25.6 2.85
3 0 0 21.88 2.96
-3 0 -1 233.42 8.85
-3 0 -1 241.65 9.77
3 0 1 228.96 9.69
-3 0 -2 17.04 2.68
-3 0 -3 15.85 2.8
3 0 4 22.09 3
-3 0 -4 16.98 2.94
3 0 5 852.06 24.69
-3 0 -5 886.87 26.13
3 0 6 356.01 15.3
-3 0 -6 346.01 15.49
3 0 7 17.36 3.6
-3 0 -7 14.59 3.13
3 0 8 0.21 0.9
-3 0 -8 1.07 1.22
-3 -1 11 2.26 2.11
-3 -1 10 2.44 1.71
3 1 -10 6.1 2.62
-3 -1 9 1.65 1.06
3 1 -9 0.52 0.98
-3 -1 8 13.68 2.9
3 1 -8 18.99 3.97
-3 -1 7 14.26 2.8
3 1 -7 11.3 2.94
3 1 -7 12.02 3.16
-3 -1 6 4.48 1.61
3 1 -6 3.85 1.66
-3 -1 5 15.68 2.58
3 1 -5 15.94 3.05
3 1 -4 272.4 12.24
-3 -1 4 305.51 11.05
3 1 -3 134.17 7.9
-3 -1 3 122.01 6.5
-3 -1 2 23.56 2.75
3 1 -2 21.29 2.92
3 1 -1 0.7 0.75
-3 -1 1 0.84 0.68
-3 -1 1 -0.31 0.52
-3 -1 0 913.87 22.44
-3 -1 0 888.39 22.57
3 1 0 912.67 22.85
-3 -1 -1 461.55 14.32
-3 -1 -1 424.05 10.66
-3 -1 -1 428.78 14.38
3 1 1 441.74 13.65
-3 -1 -2 23.27 3.11
-3 -1 -2 22.39 3.15
3 1 2 22.21 2.74
-3 -1 -2 19.16 1.83
-3 -1 -3 83.02 6.43
-3 -1 -4 15.13 2.89
-3 -1 -5 28.93 4.23
-3 -1 -6 25.88 4.08
-3 -1 -7 -1.15 1.27
-3 -1 -8 5.13 2.19
-3 -2 10 3.74 1.9
3 2 -10 6.75 2.68
3 2 -9 57.72 7.01
-3 -2 9 48.9 5.79
3 2 -8 401.77 18.1
-3 -2 8 391.41 16.31
-3 -2 7 2.33 1.45
3 2 -7 3.09 1.62
-3 -2 6 14.19 2.67
3 2 -6 11.15 2.74
-3 -2 5 11.2 2.28
3 2 -5 7.44 2.18
-3 -2 4 1.83 1.08
3 2 -4 -1.17 0.7
3 2 -3 95.24 6.27
-3 -2 3 95.95 6.21
-3 -2 2 138.5 7.6
3 2 -2 151.85 7.53
-3 -2 2 142.94 6.71
-3 -2 1 73.27 5.42
3 2 -1 68.8 4.61
-3 -2 1 70.78 4.92
-3 -2 0 496.55 15.93
3 2 0 444.87 13.27
-3 -2 0 479.08 15.19
-3 -2 -1 47.9 4.53
-3 -2 -1 46.43 3.61
-3 -2 -1 51.15 4.71
3 2 1 49.53 3.7
-3 -2 -2 -0.49 0.71
-3 -2 -2 -0.28 0.64
-3 -2 -2 0.2 0.35
-3 -2 -3 9.46 2.21
-3 -2 -3 7.25 2.13
-3 -2 -4 36.57 4.78
-3 -2 -5 256.88 13.56
-3 -2 -6 25.65 4.39
-3 -2 -7 2.52 1.47
-3 -3 10 29.57 4.97
-3 -3 9 2.7 1.62
-3 -3 8 2.02 1.32
3 3 -8 3.85 1.82
-3 -3 7 12.88 2.85
3 3 -7 12.85 3.26
-3 -3 6 6.06 1.89
3 3 -6 7.8 2.37
3 3 -5 20.52 3.37
-3 -3 5 25.56 3.47
-3 -3 4 8.7 2.03
3 3 -4 9.97 2.19
-3 -3 3 10.97 2.27
3 3 -3 10.64 2.03
-3 -3 2 38.54 4.18
3 3 -2 36.41 3.32
-3 -3 2 37.88 3.49
-3 -3 1 61.8 5.43
-3 -3 1 71.95 5.22
-3 -3 0 3.91 1.44
-3 -3 0 1.58 1.35
-3 -3 -1 9.62 2.5
-3 -3 -1 7.83 2.04
-3 -3 -2 21.83 3.46
-3 -3 -2 21.28 2.95
-3 -3 -2 21.65 3.46
-3 -3 -3 2.29 1.36
-3 -3 -3 1.84 1.14
-3 -3 -4 2.18 1.28
-3 -3 -4 0.4 0.93
-3 -3 -5 12.74 2.99
-3 -3 -6 7.64 2.42
-3 -3 -7 2.4 1.71
-3 -4 10 24.32 4.56
-3 -4 9 5.92 2.5
-3 -4 8 2.78 1.71
-3 -4 7 4.92 1.76
-3 -4 6 2.02 0.89
3 4 -5 5.18 1.63
-3 -4 5 7.71 1.94
-3 -4 4 64.15 5.81
-3 -4 3 39.94 4.58
-3 -4 2 0.76 0.98
-3 -4 2 0.32 0.52
-3 -4 1 13.96 2.96
-3 -4 1 14.98 2.61
-3 -4 0 33.24 4.43
-3 -4 0 28.32 4.32
-3 -4 0 33.44 4.23
-3 -4 -1 7.92 2.14
-3 -4 -1 8.66 2.38
-3 -4 -1 6.39 1.97
-3 -4 -2 1.38 1.2
-3 -4 -2 0.27 0.82
-3 -4 -3 30.19 4.29
-3 -4 -3 36.55 4.92
-3 -4 -4 0.59 0.92
-3 -4 -4 0.95 1.23
-3 -4 -5 1.77 1.3
-3 -4 -5 -0.12 1
-3 -4 -6 10.26 2.69
-3 -4 -6 12.02 3.08
-3 -5 9 6.29 2.28
-3 -5 8 0.41 0.9
-3 -5 7 0.82 1.05
-3 -5 6 1.11 1.04
-3 -5 5 2.41 1.19
-3 -5 4 0.78 0.85
-3 -5 3 -1.25 1.28
-3 -5 2 62.92 6.38
-3 -5 1 40.52 5.23
-3 -5 0 51.7 6.13
-3 -5 0 54.34 6.81
-3 -5 0 61.56 6.35
-3 -5 -1 4.18 2.01
-3 -5 -1 6.06 2.05
-3 -5 -1 8.03 2.34
-3 -5 -2 3.65 1.59
-3 -5 -2 4.15 1.64
-3 -5 -2 5.11 2.06
-3 -5 -3 6.86 2.28
-3 -5 -3 5.54 2.14
-3 -5 -4 3.61 1.71
-3 -5 -4 8.81 2.75
-3 -6 7 -0.72 0.79
-3 -6 6 15.3 3.47
-3 -6 5 9.23 2.51
-3 -6 4 -1.44 1.43
-3 -6 3 28.25 4.62
-3 -6 2 289.23 15.4
-3 -6 1 78.91 8.07
-3 -6 1 64.98 7.99
-3 -6 0 9 3.16
-3 -6 0 10.12 3.12
-3 -6 -1 0.77 0.85
-3 -6 -1 2.76 1.93
-3 -6 -2 18.18 4.16
-3 -6 -2 25.97 4.91
-3 -6 -2 26.66 4.84
-3 -7 4 1.45 1.19
-3 -7 3 41.54 6.12
-3 -7 2 87.82 8.98
-3 -7 2 71.27 8.68
-3 -7 1 48.01 7.45
4 -7 -3 4.02 2.47
4 -7 -3 0.75 0.89
4 -7 -2 9.7 3.16
-4 7 2 7.36 2.95
4 -7 -1 13.21 3.48
-4 7 1 9.04 3.3
-4 7 0 7.13 2.76
-4 7 -1 0.88 1.2
-4 7 -2 -1.35 1.01
4 -7 2 -0.72 1.18
-4 7 -3 7.58 3.04
4 -7 3 2.58 1.75
4 -6 -6 38.84 7.35
4 -6 -5 4.89 2.83
4 -6 -4 0.13 0.88
4 -6 -4 1.45 1.79
4 -6 -3 14.38 4.07
4 -6 -3 16 3.63
-4 6 3 13.47 3.36
4 -6 -2 126.76 13
4 -6 -2 118.99 9.88
-4 6 2 110.75 9.74
4 -6 -2 87.93 9.53
4 -6 -1 2.57 1.69
-4 6 1 0.1 1.01
-4 6 0 7.82 2.83
4 -6 0 5.27 3.11
4 -6 0 6.31 2.24
4 -6 1 16.5 4.28
-4 6 -1 10.79 3.39
-4 6 -2 2.07 1.36
4 -6 2 2.51 1.98
-4 6 -3 0.67 0.93
4 -6 3 0.93 1.02
4 -6 4 2.71 1.67
-4 6 -4 4.32 2.12
-4 6 -5 1.81 1.3
4 -5 -7 35.78 7.08
4 -5 -6 12.99 4.34
4 -5 -5 10.01 3.27
4 -5 -5 8.82 3.53
4 -5 -4 4.05 2.34
4 -5 -4 1.24 1.86
4 -5 -4 -0.37 0.71
4 -5 -3 59.99 8.15
-4 5 3 64.1 6.59
4 -5 -3 57.15 6.32
4 -5 -2 144.81 12.89
4 -5 -2 139.07 9.72
-4 5 2 130.23 9.54
4 -5 -1 4.13 1.75
4 -5 -1 3.9 2.49
-4 5 1 4.31 2.17
4 -5 0 1.75 1.59
4 -5 0 2.63 1.42
-4 5 0 3.47 1.75
-4 5 -1 36.26 5.42
4 -5 1 30.36 5.49
-4 5 -2 71.9 7.57
4 -5 2 69.23 7.88
-4 5 -3 7.49 2.46
4 -5 3 4.56 2.06
-4 5 -4 2 1.55
-4 5 -5 1.78 1.76
-4 5 -6 2.19 1.45
4 -4 -8 125.3 11.75
4 -4 -8 133.6 13.6
4 -4 -7 410.26 21.55
4 -4 -7 375.2 22.43
4 -4 -6 19.29 4.6
4 -4 -6 13.31 4.16
4 -4 -5 10.03 3.19
4 -4 -5 6.91 2.85
4 -4 -4 7.22 2.98
4 -4 -3 81.35 8.74
-4 4 3 87.74 6.82
4 -4 -3 67.29 6.18
4 -4 -2 24.88 4.75
-4 4 2 30.35 4.09
4 -4 -2 25.42 3.59
4 -4 -1 4.54 2.04
-4 4 1 5.24 1.88
4 -4 -1 8.07 2.06
4 -4 0 4.43 2.32
-4 4 0 6.9 2.2
4 -4 0 8 1.95
4 -4 1 79.74 8.05
-4 4 -1 78.54 6.89
-4 4 -2 2.86 1.49
4 -4 2 -0.24 1.12
-4 4 -3 8.55 2.25
-4 4 -4 0.48 1.37
-4 4 -5 170.2 11.08
-4 4 -6 440.35 19.68
-4 4 -7 1.07 1.32
4 -3 -9 1.54 1.86
4 -3 -9 0.81 1.06
4 -3 -8 29.41 6.17
4 -3 -8 27.41 5.4
4 -3 -7 7.51 3.34
4 -3 -7 6.26 2.82
4 -3 -6 -0.44 1.55
4 -3 -6 -0.23 1.3
4 -3 -5 3.23 2.41
4 -3 -4 114.59 10.04
4 -3 -3 107.91 9.59
-4 3 3 111.51 6.74
4 -3 -2 25.35 4.49
-4 3 2 30.12 3.52
4 -3 -1 57.09 6.39
4 -3 -1 43.84 3.85
4 -3 0 173.21 11.21
-4 3 0 197.79 10.05
4 -3 1 231.48 13.03
-4 3 -1 225.96 10.76
-4 3 -2 113.46 7.46
4 -3 2 114.95 9.23
-4 3 -3 28.35 3.82
-4 3 -4 -0.32 0.88
-4 3 -5 9.95 2.44
-4 3 -6 33.48 5.07
-4 3 -7 2.15 1.62
-4 2 10 7.26 2.97
4 -2 -10 5.54 2.8
-4 2 10 7.47 2.61
4 -2 -10 5.08 3
-4 2 9 16.09 3.56
4 -2 -9 14.46 4.33
-4 2 9 12.61 2.95
4 -2 -9 15.53 4.15
4 -2 -8 444.69 21.63
-4 2 8 417.58 16.45
4 -2 -8 451.79 24.06
-4 2 8 456.36 18.48
4 -2 -7 69.6 8.05
-4 2 7 64.49 5.44
4 -2 -7 69.67 8.59
-4 2 7 61.55 5.78
4 -2 -6 5.68 2.33
-4 2 6 6.1 1.69
4 -2 -5 2.48 1.58
-4 2 5 2.7 1.09
-4 2 4 4.58 1.29
4 -2 -4 3.6 2.11
4 -2 -3 103.47 8.98
-4 2 3 98.09 4.74
4 -2 -2 50.03 5.86
-4 2 2 58.7 4.35
-4 2 2 48.14 2.93
4 -2 -1 27.53 4.14
-4 2 1 29.52 3.21
-4 2 1 27.07 2.11
-4 2 0 72.17 3.81
4 -2 0 60.57 5.98
-4 2 0 69.24 5
-4 2 -1 149.5 6.06
4 -2 1 155.78 9.89
-4 2 -1 151.85 7.99
-4 2 -2 11.67 1.79
-4 2 -2 9.48 2.04
4 -2 2 12.89 3.03
-4 2 -3 0.11 0.51
-4 2 -3 1.24 1.14
-4 2 -4 40.72 4.68
-4 2 -4 38.99 5.01
-4 2 -5 456.18 17.85
-4 2 -5 442.61 19.4
-4 2 -6 31.04 4.41
-4 2 -6 29.37 5.05
-4 2 -7 26.13 4.91
-4 2 -8 3.22 2.04
-4 1 10 0.57 1.23
4 -1 -10 6.25 2.77
-4 1 9 0.98 1.15
4 -1 -9 4.7 2.43
4 -1 -9 4.43 2.2
-4 1 8 2.66 1.72
4 -1 -8 0.28 1.91
4 -1 -8 5.12 2.4
-4 1 7 6.96 2.02
4 -1 -7 4.53 2.49
4 -1 -7 3.37 1.9
-4 1 6 2.1 1.15
4 -1 -6 -2.94 1.79
4 -1 -5 13.58 3.47
-4 1 5 15.15 2.6
4 -1 -4 17.78 3.87
-4 1 4 16.14 2.35
-4 1 3 8.14 1.49
4 -1 -3 10.08 2.93
-4 1 2 8.91 1.52
4 -1 -2 8.93 2.56
-4 1 2 9.14 1.48
-4 1 1 25.53 2.58
4 -1 -1 29.9 4.25
-4 1 1 26.14 2.82
-4 1 0 200.81 7.84
4 -1 0 193.31 10.56
-4 1 0 183.79 8.82
-4 1 -1 25 2.72
4 -1 1 25.48 3.78
-4 1 -1 22.06 3.37
-4 1 -2 4.14 1.44
-4 1 -2 2.95 1.11
4 -1 2 5.32 1.92
-4 1 -3 19.05 3.19
-4 1 -4 12.17 2.7
-4 1 -5 31.35 4.38
-4 1 -6 16.54 3.35
-4 1 -6 17.29 3.87
-4 1 -7 1.64 1.19
-4 1 -7 -0.33 1.5
-4 0 10 0.92 1.22
4 0 -10 0.5 1.26
-4 0 9 12.76 3.13
4 0 -9 8.13 2.89
4 0 -8 81.77 8.35
4 0 -8 81.75 8.94
-4 0 8 74.91 6.94
-4 0 7 15.08 2.99
4 0 -7 13.2 3.28
-4 0 6 0.24 0.86
4 0 -6 1.21 1.56
4 0 -5 11.73 2.99
-4 0 5 10.41 2.1
4 0 -4 26.81 4.29
-4 0 4 27.45 3.29
4 0 -3 11.47 2.9
-4 0 3 11.12 1.95
4 0 -2 93.14 7.49
-4 0 2 77.25 5.17
-4 0 1 52.06 4.18
4 0 -1 50.99 5.36
-4 0 0 224.61 9.44
-4 0 0 213.41 9.8
4 0 0 234.7 11.45
-4 0 -1 -0.54 0.74
4 0 1 -0.23 0.71
-4 0 -1 0.84 0.78
-4 0 -2 -0.09 0.64
-4 0 -2 2.04 1.25
4 0 2 0.14 0.68
4 0 3 -1.36 1.22
-4 0 -3 -0.08 0.63
-4 0 -4 2.22 1.27
-4 0 -5 25.1 4.02
-4 0 -6 56.14 6.28
-4 0 -7 5.64 2.12
-4 -1 10 31.71 5.25
4 1 -10 29.94 5.41
-4 -1 9 5.58 2.36
4 1 -9 6.94 2.56
-4 -1 8 2.28 1.41
4 1 -8 -2.92 1.56
-4 -1 7 6.91 2.22
4 1 -7 7.7 2.5
-4 -1 6 7.16 2.02
4 1 -6 10.38 2.74
-4 -1 5 0.48 0.76
4 1 -5 0.04 0.89
4 1 -4 39.77 4.86
-4 -1 4 37.07 3.85
4 1 -3 34.44 4.3
-4 -1 3 31.28 3.55
-4 -1 2 40.06 3.95
4 1 -2 48.68 4.95
-4 -1 1 1.12 0.81
4 1 -1 -0.05 0.84
-4 -1 1 0.12 0.46
-4 -1 0 129.03 7.76
-4 -1 0 117.51 7.31
4 1 0 125.06 8.1
-4 -1 -1 -0.28 0.67
4 1 1 -0.7 0.88
-4 -1 -1 0.39 0.75
4 1 2 3.38 1.35
-4 -1 -2 5.93 2.01
-4 -1 -3 -0.73 1
-4 -1 -3 1.94 1.5
4 1 3 0.98 0.58
-4 -1 -4 11.31 2.86
-4 -1 -5 12.76 3.04
-4 -1 -6 1.32 1.07
-4 -1 -7 4.73 2.25
4 2 -10 131.64 11.2
-4 -2 10 109.22 9.64
-4 -2 9 0.95 1.19
4 2 -9 2.41 1.61
-4 -2 8 3.7 1.86
4 2 -8 3.32 2
-4 -2 7 -0.27 1.11
4 2 -7 1.22 1.23
-4 -2 6 -1.19 0.98
4 2 -6 0.73 1.2
-4 -2 5 1.05 1.16
4 2 -5 0.28 1.09
4 2 -4 59.9 5.79
-4 -2 4 66.62 5.53
4 2 -3 127.26 8.11
-4 -2 3 129.92 7.89
-4 -2 2 115.18 7.59
4 2 -2 115.66 7.41
-4 -2 1 179.47 9.74
4 2 -1 176.9 8.96
-4 -2 1 176.56 9
-4 -2 0 3.48 1.31
-4 -2 0 2.15 1.06
-4 -2 -1 7.32 2.1
-4 -2 -1 10.48 2.36
-4 -2 -2 10.66 2.48
-4 -2 -2 6.62 1.98
-4 -2 -3 136.24 9.47
-4 -2 -3 129.81 9.26
-4 -2 -4 15.29 3.3
-4 -2 -4 18.4 3.54
-4 -2 -5 3.88 1.98
-4 -2 -5 6.43 2.27
-4 -2 -6 2.54 1.74
-4 -3 10 7.04 2.58
4 3 -10 7.98 2.87
-4 -3 9 4.49 2.13
4 3 -9 7.28 2.68
-4 -3 8 3.61 1.75
4 3 -8 -1.65 1.33
-4 -3 7 -0.42 0.97
4 3 -7 -0.79 1.03
-4 -3 6 11.34 2.64
4 3 -6 6.56 2.23
-4 -3 5 1.4 1.07
4 3 -5 0.95 0.89
-4 -3 4 1.76 1.28
4 3 -4 1.95 1.4
-4 -3 3 3.12 1.43
-4 -3 2 195.33 10.65
-4 -3 2 188.7 9.15
-4 -3 1 153.66 9.6
-4 -3 1 154.83 8.85
-4 -3 0 35.98 4.68
-4 -3 0 37.81 4.56
-4 -3 -1 15.54 3.39
-4 -3 -1 18.51 3.36
-4 -3 -2 27.49 4.41
-4 -3 -2 26.63 4.18
-4 -3 -3 67.62 6.84
-4 -3 -3 66.38 6.92
-4 -3 -4 13.76 3.18
-4 -3 -4 14.06 3.19
-4 -3 -5 10.3 2.89
-4 -3 -5 13.27 3.18
-4 -4 9 4.4 2.25
-4 -4 8 2.2 1.51
4 4 -8 0.95 1.37
-4 -4 7 0.89 1.23
4 4 -7 3.33 1.86
-4 -4 6 11.99 2.9
-4 -4 5 1.2 1.33
-4 -4 4 8.73 2.25
-4 -4 3 2.37 1.45
-4 -4 2 1024.09 30.15
-4 -4 1 154.72 10.49
-4 -4 1 175.55 10.14
-4 -4 0 3.24 1.4
-4 -4 0 7.22 2.33
-4 -4 -1 6.25 2.41
-4 -4 -1 7.05 2.18
-4 -4 -2 40.51 5.59
-4 -4 -2 49.62 6.08
-4 -4 -3 81.52 7.92
-4 -4 -3 84.2 8.13
-4 -4 -4 0.86 1.48
-4 -4 -4 2.42 1.67
-4 -5 8 0.29 1.5
-4 -5 7 47.38 6.05
-4 -5 6 100.44 8.49
-4 -5 5 0.45 0.93
-4 -5 4 0.36 0.86
-4 -5 3 84.8 7.68
-4 -5 2 60.27 6.72
-4 -5 1 36.41 5.34
-4 -5 1 33.31 5.42
-4 -5 0 14.74 3.53
-4 -5 0 15.87 3.44
-4 -5 -1 4.16 2.22
-4 -5 -1 8.2 2.66
-4 -5 -2 73.89 8.07
-4 -5 -2 77.87 8.17
-4 -5 -3 37.82 5.81
-4 -5 -3 42.9 6.01
-4 -6 6 3.77 2.32
-4 -6 5 -2.3 1.6
-4 -6 4 -1.89 1.54
-4 -6 3 375.75 18.44
-4 -6 2 418.57 19.99
-4 -6 1 1.14 1.3
-4 -6 1 -0.8 1.06
-4 -6 0 1.82 1.61
-5 7 1 7.64 3.37
5 -7 0 4.79 3.52
-5 7 0 3.78 2.48
5 -6 -5 2.94 2.58
5 -6 -4 1.31 1.18
5 -6 -4 1.63 2.22
5 -6 -3 15.56 4.16
5 -6 -3 24.65 6.41
5 -6 -2 -1.57 2.47
5 -6 -1 1.89 2.66
-5 6 1 -0.72 1.21
5 -6 0 1.27 1.91
-5 6 0 -1.02 1.8
-5 6 -1 38.59 6.33
5 -6 1 33.93 6.75
-5 6 -2 4.97 2.31
5 -6 2 -1.09 1.09
-5 6 -3 0.48 1.25
5 -6 3 0.65 1.62
5 -6 4 5.8 2.87
5 -5 -7 -0.91 1.55
5 -5 -7 6.49 2.79
5 -5 -6 1.8 2.13
5 -5 -6 -0.93 1.64
5 -5 -5 -1.27 2.1
5 -5 -5 0.61 1.73
5 -5 -4 35.79 6.89
5 -5 -3 4.65 2.5
5 -5 -2 4.2 2.73
5 -5 -1 -0.04 1.84
-5 5 1 3.24 1.74
5 -5 0 89.21 10.33
-5 5 0 90.16 8.78
-5 5 -1 31.98 5.15
5 -5 1 32.81 6.08
-5 5 -2 1.69 1.33
5 -5 2 1.7 1.56
-5 5 -3 14.22 3.24
5 -5 3 8.19 3.07
-5 5 -4 4.33 2.23
5 -5 4 7.08 3.25
5 -5 5 16.01 4.85
-5 5 -5 10.53 3.04
5 -4 -8 105.15 11.75
5 -4 -8 102.93 12.45
5 -4 -7 3.07 2.55
5 -4 -7 -1.1 1.69
5 -4 -6 2.99 2.38
5 -4 -6 0.73 1.24
5 -4 -5 0.79 1.26
5 -4 -4 -0.84 1.19
5 -4 -3 12.02 3.66
5 -4 -2 20.8 4.87
5 -4 -1 8.48 3.21
-5 4 1 16.92 3.42
-5 4 0 40.77 5.25
5 -4 0 37.57 6.29
-5 4 -1 37.55 4.88
5 -4 1 33.25 5.83
-5 4 -2 -0.81 0.81
5 -4 2 -0.58 1.28
-5 4 -3 4.13 1.71
5 -4 3 7.97 2.99
5 -4 4 5.91 3.08
-5 4 -4 8.08 2.41
-5 4 -5 57.85 6.76
-5 4 -6 4.26 1.7
5 -3 -9 2.84 2.36
5 -3 -9 3.35 2.44
5 -3 -8 -0.59 1.36
5 -3 -8 4.72 2.63
5 -3 -7 2.7 2.12
5 -3 -7 0.93 1.83
5 -3 -6 1.44 1.67
5 -3 -5 1.24 1.49
5 -3 -4 4.81 2.48
5 -3 -3 1.57 2.04
5 -3 -2 1.43 1.88
5 -3 -1 8.73 3.01
-5 3 1 5.97 1.79
5 -3 0 1.6 1.76
-5 3 0 0.97 0.99
5 -3 1 3.71 2.01
-5 3 -1 5.29 1.82
-5 3 -2 3.89 1.53
5 -3 2 3.27 2.11
-5 3 -3 0.39 0.72
5 -3 3 3.08 2.01
5 -3 4 4.48 2.37
-5 3 -4 0.57 0.77
-5 3 -5 9.77 2.75
-5 3 -6 4.1 1.77
5 -2 -9 3.77 2.75
5 -2 -9 3.14 2.46
5 -2 -8 2.02 1.98
5 -2 -8 1.67 1.73
5 -2 -7 3.77 2.57
5 -2 -6 0.9 1.71
5 -2 -5 -0.78 1.24
5 -2 -4 20.93 4.78
5 -2 -3 4.02 2.14
5 -2 -2 5.52 2.36
5 -2 -1 90.96 8.74
-5 2 1 98.63 6.4
5 -2 0 6.48 2.4
-5 2 0 4.64 1.34
5 -2 1 9.83 2.91
-5 2 -1 7.04 1.75
5 -2 2 0.34 1.01
-5 2 -2 1.05 1.11
-5 2 -3 14.49 3.13
5 -2 3 13.45 3.7
5 -2 4 31.84 6.05
-5 2 -4 30.63 4.44
-5 2 -4 27.07 4.43
-5 2 -5 0.48 0.89
-5 2 -5 0.77 1.05
-5 2 -6 14.12 3.24
-5 2 -6 17.6 4.01
-5 1 10 -1.09 1.66
5 -1 -10 4.88 3.18
5 -1 -10 5.7 2.95
-5 1 9 20.75 4.12
5 -1 -9 15.86 4.63
5 -1 -9 19.45 4.59
-5 1 8 0.54 1.1
5 -1 -8 1.74 1.61
5 -1 -8 -1.34 1.4
-5 1 7 -0.43 0.95
5 -1 -7 -1.91 1.82
5 -1 -6 -0.19 1.12
-5 1 6 1.79 1.18
5 -1 -5 3.32 2.05
-5 1 5 1.85 0.98
5 -1 -4 6.55 2.93
-5 1 4 4.35 1.45
5 -1 -3 14.26 3.67
-5 1 3 15.88 2.39
5 -1 -2 67.77 7.54
-5 1 2 73.18 5
-5 1 1 40.09 3.69
5 -1 -1 45.64 5.88
-5 1 1 42.2 4.18
-5 1 0 121.34 6.76
5 -1 0 106.17 8.78
-5 1 0 124.02 7.91
-5 1 -1 7.6 1.79
5 -1 1 5.39 1.95
-5 1 -1 10.46 2.65
-5 1 -2 2.49 1.14
-5 1 -2 1.75 1.13
5 -1 2 2.48 1.59
-5 1 -2 5.05 2.11
-5 1 -3 26.47 3.77
-5 1 -3 26.01 4.04
-5 1 -3 21.09 4.06
5 -1 3 22.9 4.53
-5 1 -4 44.53 5.58
5 -1 4 50.19 7.18
-5 1 -4 48.79 6.39
-5 1 -5 12.84 3.1
-5 1 -5 17.23 3.93
-5 1 -6 0.02 0.78
-5 1 -6 1.72 1.31
5 0 -10 152.73 12.92
-5 0 10 141.93 11.82
-5 0 9 2.32 1.72
5 0 -9 1.17 1.38
-5 0 8 2.35 1.08
5 0 -8 4.23 2.18
-5 0 7 -0.36 1.05
5 0 -7 1.19 1.5
-5 0 6 7.03 2.13
5 0 -6 5.99 2.42
5 0 -5 4.78 2.33
-5 0 5 2.98 1.34
5 0 -4 4.13 1.97
-5 0 4 4.96 1.59
5 0 -3 64.97 7.14
-5 0 3 59.56 5
-5 0 2 520.15 16.59
5 0 -2 516.79 21.56
-5 0 1 378.97 13.76
5 0 -1 362.48 17.35
-5 0 0 18.84 2.87
5 0 0 19.79 3.56
-5 0 -1 1.15 0.98
5 0 1 1.61 1.52
-5 0 -1 1.61 1.24
-5 0 -2 29.05 4.1
-5 0 -2 21.83 3.73
5 0 2 26.03 4.33
-5 0 -3 155.17 10.33
-5 0 -3 143.79 9.93
-5 0 -4 3.65 1.78
-5 0 -4 2.73 1.36
5 0 4 5.28 2.54
-5 0 -5 3.51 1.92
-5 0 -5 3.22 1.77
-5 0 -6 7.53 2.59
5 1 -10 38.27 6.39
-5 -1 10 38.48 5.91
-5 -1 9 2.24 1.56
5 1 -9 -0.17 1.62
-5 -1 8 2.82 1.89
5 1 -8 3.56 2.03
-5 -1 7 8.81 2.52
5 1 -7 10.16 2.9
5 1 -6 68.25 7.43
-5 -1 6 78.82 6.78
5 1 -5 1.54 1.04
-5 -1 5 3.34 1.45
5 1 -4 1.67 1.5
-5 -1 4 2.36 1.09
5 1 -3 30.08 4.52
-5 -1 3 31.42 3.86
-5 -1 2 141.23 8.37
5 1 -2 134.74 9.64
-5 -1 1 81.42 6.48
5 1 -1 68.88 6.84
5 1 0 -0.08 0.83
-5 -1 0 1.4 1.13
-5 -1 -1 9.87 2.54
5 1 1 6.62 2.25
-5 -1 -1 9.71 2.4
-5 -1 -2 81.27 7.64
-5 -1 -2 79.37 7.22
-5 -1 -3 125.26 9.82
-5 -1 -3 106.53 8.84
-5 -1 -4 3.07 1.84
-5 -1 -4 0.77 0.95
-5 -1 -5 8.05 2.83
-5 -1 -5 11.03 3.02
-5 -2 9 2.25 1.77
5 2 -9 3.59 2.07
-5 -2 8 0.68 1.01
5 2 -8 3.21 1.91
-5 -2 7 0.36 0.77
5 2 -7 1.84 1.75
-5 -2 6 1.78 1.2
5 2 -6 1.6 1.61
-5 -2 5 0.33 0.63
5 2 -5 0.79 0.75
-5 -2 4 3.65 1.5
5 2 -4 5.66 1.96
5 2 -3 152.58 9.9
-5 -2 3 144.44 8.99
-5 -2 2 1339.42 34.54
-5 -2 1 48.81 5.56
-5 -2 1 50.88 5.03
-5 -2 0 2.73 1.83
-5 -2 0 3.8 1.54
-5 -2 -1 11.7 3
-5 -2 -1 10.95 2.64
-5 -2 -2 23.03 4.22
-5 -2 -2 16.26 3.38
-5 -2 -3 29.46 5.11
-5 -2 -3 22.78 4.2
-5 -2 -4 9.5 3.01
-5 -2 -4 10.88 3.12
-5 -2 -5 2.1 1.6
-5 -2 -5 4.57 2.37
-5 -3 9 18.86 4.12
5 3 -9 11.69 3.49
-5 -3 8 17.18 3.66
5 3 -8 17.55 4.07
5 3 -7 110.26 9.54
-5 -3 7 106.91 8.79
5 3 -6 111.85 9.22
-5 -3 6 91.42 7.8
-5 -3 5 10.65 2.58
-5 -3 4 -1.5 0.97
-5 -3 3 48.28 5.6
-5 -3 2 0.84 1.27
-5 -3 2 1.87 1.18
-5 -3 1 7.51 2.48
-5 -3 1 9.18 2.33
-5 -3 0 21.76 4.17
-5 -3 0 22.68 3.83
-5 -3 -1 20.43 4.36
-5 -3 -1 24.19 4.12
-5 -3 -2 43.86 6.3
-5 -3 -2 46.83 6.03
-5 -3 -3 10.42 3.29
-5 -3 -3 7.74 2.62
-5 -3 -4 23.57 4.57
-5 -3 -4 19.79 4.02
-5 -4 8 4.46 2.08
-5 -4 7 4.99 2
-5 -4 6 6.31 2.17
-5 -4 5 3.09 1.65
-5 -4 4 2.85 1.65
-5 -4 3 459.09 19.22
-5 -4 2 160.29 11.09
-5 -4 1 25.96 4.72
-5 -4 1 28.72 4.37
-5 -4 0 -0.84 1.45
-5 -4 0 1.48 1.37
-5 -4 -1 4.99 2.22
-5 -4 -1 1.66 1.4
-5 -4 -2 12.27 3.5
-5 -4 -2 6.35 2.45
-5 -5 6 -0.67 0.76
-5 -5 5 3.84 1.84
-5 -5 4 8.62 2.43
-5 -5 3 0.28 1.11
-5 -5 2 -1.11 1.44
-5 -5 1 2.22 1.72
-5 -5 0 0.61 0.9
6 -6 -3 -3.16 2.53
6 -6 -2 11.07 4.82
6 -6 -1 12.79 5.29
6 -6 0 6.83 3.58
-6 6 0 0.03 1.11
6 -6 1 5.99 3.32
-6 6 -1 -1.48 1.43
6 -5 -5 2.41 1.31
6 -5 -4 8.15 3.81
6 -5 -3 2.47 2.21
6 -5 -2 0.29 1.48
6 -5 -1 -1.05 1.79
6 -5 0 8.46 3.8
-6 5 0 13.22 3.42
6 -5 1 7.75 3.55
-6 5 -1 1.77 1.37
6 -5 2 1.87 1.87
-6 5 -2 2.13 1.37
-6 5 -3 1.49 1.3
6 -5 3 7.69 3.13
6 -4 -7 -0.01 1.71
6 -4 -7 -1.58 2.36
6 -4 -6 0.98 2.11
6 -4 -5 1.93 2.01
6 -4 -4 0.77 1.79
6 -4 -3 15.79 4.58
6 -4 -2 17.77 5.05
6 -4 -1 143.46 13.38
6 -4 0 13.64 4.44
-6 4 0 8.91 2.67
6 -4 1 0.09 1.22
-6 4 -1 2.62 1.5
6 -4 2 1.46 1.83
-6 4 -2 1.97 1.46
-6 4 -3 31.16 4.8
6 -4 3 45.36 7.6
-6 4 -4 18.54 3.9
6 -4 4 23.03 6.02
6 -3 -8 5.58 2.71
6 -3 -8 6.77 3.69
6 -3 -7 1.23 1.77
6 -3 -6 10.04 3.56
6 -3 -5 9.8 3.62
6 -3 -4 4.97 2.39
6 -3 -3 -2.42 2.06
6 -3 -2 46.31 7.25
6 -3 -1 26.94 5.56
6 -3 0 23.31 5.01
-6 3 0 21.6 3.57
6 -3 1 9.05 3.19
-6 3 -1 12.66 2.86
6 -3 2 13.98 4.13
-6 3 -2 13.34 2.88
6 -3 3 47.59 7.69
-6 3 -3 47.26 5.75
-6 3 -4 21.01 4.09
6 -3 4 18.85 5.11
6 -2 -8 2.07 1.76
6 -2 -7 -0.37 1.38
6 -2 -6 3.05 1.95
6 -2 -5 1.24 2.13
6 -2 -4 0.29 1.68
6 -2 -3 -1.2 1.87
6 -2 -2 584.27 26.07
6 -2 -1 193.06 13.99
6 -2 0 -1.19 1.83
-6 2 0 1.5 0.98
6 -2 1 3.44 1.73
-6 2 -1 9.28 2.44
6 -2 2 10.31 3.4
-6 2 -2 13.74 3.04
6 -2 3 50.83 7.61
-6 2 -3 43.8 5.68
-6 2 -4 0.65 0.73
6 -2 4 -4.01 2.54
-6 2 -5 1.97 1.53
6 -2 5 5.85 3.43
6 -1 -9 3.76 2.7
6 -1 -9 3.15 1.74
6 -1 -8 1.88 1.42
6 -1 -7 50.15 7.68
6 -1 -6 106.32 11.1
6 -1 -5 2.03 1.9
6 -1 -4 0.44 1.67
6 -1 -3 26.16 5.22
6 -1 -2 21.96 4.78
6 -1 -1 7.57 2.95
6 -1 0 1.1 1.08
-6 1 0 5.11 1.8
6 -1 1 -0.57 1.41
-6 1 -1 -0.3 0.67
6 -1 2 58.81 7.64
-6 1 -2 78.83 7.97
-6 1 -3 38.88 5.29
-6 1 -3 44.81 6.27
6 -1 3 40.45 6.53
-6 1 -4 5.64 2.23
6 -1 4 3.56 2.44
-6 1 -4 5.92 2.61
-6 1 -5 0.17 0.87
-6 1 -5 2.45 1.72
6 -1 5 0.56 1.78
-6 0 9 2.12 1.29
6 0 -9 4.06 2.58
-6 0 8 3.97 1.96
6 0 -8 1.29 1.29
-6 0 7 5.76 2.18
6 0 -7 3.37 2.14
6 0 -6 16.4 4.25
-6 0 6 16.57 3.43
6 0 -5 1.8 1.66
-6 0 5 3.07 1.48
6 0 -4 -1.02 1.36
-6 0 4 -0.58 1.01
6 0 -3 241.73 15.74
-6 0 3 265.9 11.85
6 0 -2 591.87 25.88
-6 0 2 677.42 20.71
-6 0 1 2.29 1.42
6 0 -1 -0.46 1.71
-6 0 0 10.29 2.49
6 0 0 7 2.81
-6 0 -1 0.18 0.82
6 0 1 -1.61 1.15
-6 0 -2 6.09 2.35
6 0 2 2.32 1.74
-6 0 -2 2.37 1.53
-6 0 -3 5.02 1.94
-6 0 -3 4.3 1.92
-6 0 -4 7.35 2.79
-6 -1 9 7.67 2.82
6 1 -9 3.85 2.19
-6 -1 8 30.88 5.01
6 1 -8 30.36 5.52
6 1 -7 68.14 8.14
-6 -1 7 84.09 7.78
-6 -1 6 23.81 3.96
6 1 -6 25.96 4.94
6 1 -5 13.95 3.69
-6 -1 5 20.64 3.56
6 1 -4 1.88 1.53
-6 -1 4 2.51 1.3
6 1 -3 7.88 2.88
-6 -1 3 8.73 2.29
6 1 -2 9.55 3
-6 -1 2 8.36 2.22
6 1 -1 2.35 1.85
-6 -1 1 0.6 0.79
-6 -1 0 9.65 2.75
-6 -1 -1 22.34 4.09
-6 -1 -1 16.32 3.29
-6 -1 -2 3.6 2.05
-6 -1 -2 3.96 1.86
-6 -1 -3 3.99 2.19
-6 -1 -3 0.1 0.83
-6 -1 -4 2.36 1.77
-6 -1 -4 3 1.69
-6 -2 8 5.08 2.23
6 2 -8 5.44 2.44
-6 -2 7 7.26 2.34
6 2 -7 7.51 2.67
-6 -2 6 3.52 1.79
6 2 -6 1.65 1.18
-6 -2 5 13.61 3.03
6 2 -5 13.49 3.38
-6 -2 4 2.11 1.46
-6 -2 3 170.21 10.69
-6 -2 2 1.65 1.44
-6 -2 1 20.04 3.97
-6 -2 0 1.93 1.55
-6 -2 0 -0.14 0.57
-6 -2 -1 0.11 1.31
-6 -2 -1 0.75 1.1
-6 -2 -2 10.59 3.71
-6 -2 -2 3.74 1.61
-6 -2 -3 10.54 3.7
-6 -2 -3 7.07 2.64
-6 -3 7 6.48 2.38
-6 -3 6 10.26 2.81
-6 -3 5 3.58 1.73
-6 -3 4 2.19 1.62
-6 -3 3 3.52 1.88
-6 -3 2 0.58 1.24
-6 -3 1 1.32 1.46
-6 -3 1 0.17 0.92
-6 -3 0 -0.82 1.01
-6 -3 0 0.99 0.65
-6 -3 -1 1.7 1.22
-6 -3 -1 0.82 1.15
-6 -3 -2 -0.34 1.4
-6 -3 -2 0.25 0.99
-6 -4 6 2.39 1.63
-6 -4 5 16.91 3.66
-6 -4 4 60.42 7
-6 -4 3 1.98 0.87
-6 -4 2 12.09 3.42
-6 -4 1 5.94 2.69
-6 -4 1 3.79 1.95
7 -4 -5 8.53 3.95
7 -4 -4 -0.1 1.61
7 -4 -3 24.04 6.49
7 -4 -2 367.39 23.75
7 -4 -1 36.01 7.3
7 -4 0 0.9 1.79
7 -4 1 6.27 3.14
7 -3 -6 45.2 8.37
7 -3 -5 5.64 3.3
7 -3 -4 2.82 2.24
7 -3 -3 10.8 3.89
7 -3 -2 0.39 2.42
7 -3 -1 1.81 1.76
7 -3 0 0.03 1.51
7 -3 1 5.98 3.12
7 -3 2 18.58 5.46
-7 3 -2 21.92 4.16
7 -2 -7 12.42 4.4
7 -2 -6 7.09 3.35
7 -2 -5 -3.39 2.87
7 -2 -4 3.59 2.8
7 -2 -3 93.56 10.91
7 -2 -2 86.6 10.29
7 -2 -1 11.26 3.88
7 -2 0 0.67 1.71
7 -2 1 -0.68 1.79
7 -2 2 1.97 2.48
-7 2 -2 0.78 1.07
7 -1 -7 9.14 3.7
7 -1 -6 1.3 1.8
7 -1 -5 1.54 1.74
7 -1 -4 4.87 2.83
7 -1 -3 0.58 1.8
7 -1 -2 4.34 2.43
7 -1 -1 1.14 1.16
7 -1 0 1.23 1.7
7 -1 1 3.85 2.44
7 -1 2 1.48 1.66
-7 1 -2 -0.74 1.4
7 0 -7 15.71 4.59
7 0 -6 0.86 1.43
7 0 -5 3.31 2.49
7 0 -4 28.39 5.94
7 0 -3 8.25 3.53
7 0 -2 10.04 3.45
7 0 -1 0.34 2
7 0 0 5.87 3.21
-7 -1 7 -0.76 1.52
7 1 -7 1.71 1.7
-7 -1 6 0.27 0.88
7 1 -6 -1.64 1.65
7 1 -5 9.19 3.43
-7 -1 5 2.8 1.55
7 1 -4 6.77 3
-7 -1 4 9.55 2.48
-7 -1 3 0.88 0.82
-7 -1 2 0.68 0.98
-7 -1 1 2.43 1.64
-7 -1 0 3.42 2.13
-7 -1 -1 3.34 2
-7 -2 6 0.14 0.86
-7 -2 5 80.99 7.58
-7 -2 4 85.62 7.79
-7 -2 3 -1.79 1.34
-7 -2 2 3.66 1.98
-7 -2 1 9.87 3.1
-7 -2 0 4.27 2.52
8 -1 -3 2.1 2.32
