#------------------------------------------------------------------------------
#$Date: 2016-03-24 01:57:54 +0200 (Thu, 24 Mar 2016) $
#$Revision: 179548 $
#$URL: svn://www.crystallography.net/cod/cif/4/50/17/4501702.cif $
#------------------------------------------------------------------------------
#
# This file is available in the Crystallography Open Database (COD),
# http://www.crystallography.net/
#
# All data on this site have been placed in the public domain by the
# contributors.
#
data_4501702
loop_
_publ_author_name
'Katrusiak, Andrzej'
'Podsiad\/lo, Marcin'
'Budzianowski, Armand'
_publ_section_title
;
 Association CH&#x00B7;&#x00B7;&#x00B7;\p and No van der Waals Contacts at
 the Lowest Limits of Crystalline Benzene I and II Stability
 Regions&#x2020;
;
_journal_issue                   8
_journal_name_full               'Crystal Growth &amp; Design'
_journal_page_first              3461
_journal_paper_doi               10.1021/cg1002594
_journal_volume                  10
_journal_year                    2010
_chemical_formula_moiety         'C6 H6'
_chemical_formula_sum            'C6 H6'
_chemical_formula_weight         78.11
_chemical_melting_point          279
_chemical_name_common            benzene
_chemical_name_systematic
; 
benzene 
;
_space_group_IT_number           61
_symmetry_cell_setting           orthorhombic
_symmetry_space_group_name_Hall  '-P 2ac 2ab'
_symmetry_space_group_name_H-M   'P b c a'
_atom_sites_solution_hydrogens   geom
_atom_sites_solution_primary     direct
_atom_sites_solution_secondary   difmap
_audit_creation_method           SHELXL-97
_cell_angle_alpha                90.00
_cell_angle_beta                 90.00
_cell_angle_gamma                90.00
_cell_formula_units_Z            4
_cell_length_a                   7.3801(15)
_cell_length_b                   9.5154(19)
_cell_length_c                   6.9029(14)
_cell_measurement_reflns_used    2141
_cell_measurement_temperature    295(2)
_cell_measurement_theta_max      28.62
_cell_measurement_theta_min      4.28
_cell_volume                     484.75(17)
_computing_cell_refinement       'CrysAlisRED (Oxford Diffraction, 2004)'
_computing_data_collection       'CrysAlisCCD (Oxford Diffraction, 2004)'
_computing_data_reduction
'CrysAlisRED (Oxford Diffraction, 2004); REDSHABS (Katrusiak, A.  2003)'
_computing_molecular_graphics    'SHELXTL (Sheldrick, 1990)'
_computing_publication_material  'SHELXL--97 (Sheldrick, 1997)'
_computing_structure_refinement  'SHELXL--97 (Sheldrick, 1997)'
_computing_structure_solution    'SHELXS--97 (Sheldrick, 1997)'
_diffrn_ambient_environment      'diamond-anvil cell'
_diffrn_ambient_pressure         150000
_diffrn_ambient_temperature      295(2)
_diffrn_measured_fraction_theta_full 0.413
_diffrn_measured_fraction_theta_max 0.413
_diffrn_measurement_device_type  'KM-4 CCD'
_diffrn_measurement_method       '\f- and \w-scans'
_diffrn_radiation_monochromator  graphite
_diffrn_radiation_source         'fine-focus sealed tube'
_diffrn_radiation_type           MoK\a
_diffrn_radiation_wavelength     0.71073
_diffrn_reflns_av_R_equivalents  0.0816
_diffrn_reflns_av_sigmaI/netI    0.0324
_diffrn_reflns_limit_h_max       8
_diffrn_reflns_limit_h_min       -7
_diffrn_reflns_limit_k_max       12
_diffrn_reflns_limit_k_min       -12
_diffrn_reflns_limit_l_max       6
_diffrn_reflns_limit_l_min       -6
_diffrn_reflns_number            2141
_diffrn_reflns_theta_full        28.62
_diffrn_reflns_theta_max         28.62
_diffrn_reflns_theta_min         4.28
_diffrn_standards_decay_%        0
_diffrn_standards_interval_count 0
_diffrn_standards_number         0
_exptl_absorpt_coefficient_mu    0.060
_exptl_absorpt_correction_T_max  0.94
_exptl_absorpt_correction_T_min  0.52
_exptl_absorpt_correction_type   numerical
_exptl_absorpt_process_details
; 
 Correction for absorption of the diamond-anvil cell and the sample 
 were made using program REDSHABS (Katrusiak, A. (2003) REDSHABS. Adam
 Mickiewicz University Pozna\'n; Katrusiak, A. (2004) Z. Kristallogr.
 219, 461-467).
;
_exptl_crystal_colour            colourless
_exptl_crystal_density_diffrn    1.070
_exptl_crystal_density_method    'not measured'
_exptl_crystal_description       cylinder
_exptl_crystal_F_000             168
_exptl_crystal_size_max          0.40
_exptl_crystal_size_mid          0.40
_exptl_crystal_size_min          0.25
_refine_diff_density_max         0.077
_refine_diff_density_min         -0.081
_refine_diff_density_rms         0.027
_refine_ls_extinction_coef       0.07(5)
_refine_ls_extinction_expression Fc^*^=kFc[1+0.001xFc^2^\l^3^/sin(2\q)]^-1/4^
_refine_ls_extinction_method     SHELXL
_refine_ls_goodness_of_fit_ref   1.214
_refine_ls_hydrogen_treatment    mixed
_refine_ls_matrix_type           full
_refine_ls_number_parameters     29
_refine_ls_number_reflns         257
_refine_ls_number_restraints     0
_refine_ls_restrained_S_all      1.214
_refine_ls_R_factor_all          0.1352
_refine_ls_R_factor_gt           0.0852
_refine_ls_shift/su_max          0.000
_refine_ls_shift/su_mean         0.000
_refine_ls_structure_factor_coef Fsqd
_refine_ls_weighting_details
'calc w=1/[\s^2^(Fo^2^)+(0.0996P)^2^+0.1028P] where P=(Fo^2^+2Fc^2^)/3'
_refine_ls_weighting_scheme      calc
_refine_ls_wR_factor_gt          0.2175
_refine_ls_wR_factor_ref         0.2547
_reflns_number_gt                161
_reflns_number_total             257
_reflns_threshold_expression     >2sigma(I)
_cod_data_source_file            cg1002594_si_004.cif
_cod_data_source_block           benz1_0.15GPa
_cod_database_code               4501702
loop_
_symmetry_equiv_pos_as_xyz
'x, y, z'
'-x+1/2, -y, z+1/2'
'-x, y+1/2, -z+1/2'
'x+1/2, -y+1/2, -z'
'-x, -y, -z'
'x-1/2, y, -z-1/2'
'x, -y-1/2, z-1/2'
'-x-1/2, y-1/2, z'
loop_
_atom_site_label
_atom_site_type_symbol
_atom_site_fract_x
_atom_site_fract_y
_atom_site_fract_z
_atom_site_U_iso_or_equiv
_atom_site_adp_type
_atom_site_occupancy
_atom_site_symmetry_multiplicity
_atom_site_calc_flag
_atom_site_refinement_flags
C1 C -0.0540(8) 0.1376(6) -0.0002(11) 0.103(3) Uani 1 1 d .
H1 H -0.0888 0.2316 -0.0009 0.124 Uiso 1 1 calc R
C2 C 0.0768(8) 0.0903(6) 0.1324(10) 0.099(2) Uani 1 1 d .
H2 H 0.1265 0.1520 0.2224 0.119 Uiso 1 1 calc R
C3 C -0.1300(8) 0.0454(6) -0.1282(10) 0.106(3) Uani 1 1 d .
H3 H -0.2192 0.0764 -0.2133 0.127 Uiso 1 1 calc R
loop_
_atom_site_aniso_label
_atom_site_aniso_U_11
_atom_site_aniso_U_22
_atom_site_aniso_U_33
_atom_site_aniso_U_23
_atom_site_aniso_U_13
_atom_site_aniso_U_12
C1 0.112(6) 0.097(3) 0.101(9) 0.020(4) 0.019(3) -0.006(3)
C2 0.110(6) 0.119(4) 0.067(8) 0.013(3) -0.004(3) -0.026(3)
C3 0.102(5) 0.113(4) 0.103(8) 0.020(4) -0.020(3) -0.010(3)
loop_
_atom_type_symbol
_atom_type_description
_atom_type_scat_dispersion_real
_atom_type_scat_dispersion_imag
_atom_type_scat_source
C C 0.0033 0.0016 'International Tables Vol C Tables 4.2.6.8 and 6.1.1.4'
H H 0.0000 0.0000 'International Tables Vol C Tables 4.2.6.8 and 6.1.1.4'
loop_
_geom_angle_atom_site_label_1
_geom_angle_atom_site_label_2
_geom_angle_atom_site_label_3
_geom_angle
_geom_angle_site_symmetry_1
C3 C1 C2 119.8(5) .
C3 C2 C1 119.5(6) 5
C2 C3 C1 120.6(5) 5
loop_
_geom_bond_atom_site_label_1
_geom_bond_atom_site_label_2
_geom_bond_distance
_geom_bond_site_symmetry_2
C1 C3 1.366(8) .
C1 C2 1.405(9) .
C2 C3 1.350(8) 5
C3 C2 1.350(8) 5
loop_
_geom_torsion_atom_site_label_1
_geom_torsion_atom_site_label_2
_geom_torsion_atom_site_label_3
_geom_torsion_atom_site_label_4
_geom_torsion
_geom_torsion_site_symmetry_4
C3 C1 C2 C3 1.9(12) 5
C2 C1 C3 C2 -1.9(12) 5
loop_
_refln_index_h
_refln_index_k
_refln_index_l
_refln_F_squared_calc
_refln_F_squared_meas
_refln_F_squared_sigma
_refln_observed_status
0 2 0 1278.34 1116.50 5.35 o
2 2 0 7.53 8.17 1.13 o
2 3 0 8.55 7.93 0.33 o
0 4 0 535.05 561.28 1.73 o
2 4 0 225.11 261.12 2.70 o
2 5 0 7.40 8.11 0.60 o
0 6 0 24.95 29.34 6.79 o
2 6 0 0.00 0.61 0.20 o
4 6 0 2.71 3.14 1.61 o
2 7 0 24.08 28.98 1.15 o
4 7 0 1.15 0.73 0.49 o
2 8 0 7.43 9.77 1.03 o
4 8 0 4.20 1.90 0.64 o
2 9 0 11.17 13.95 3.90 o
4 9 0 4.34 3.69 1.07 o
2 10 0 0.01 0.40 0.59 o
4 10 0 0.30 1.58 0.73 o
4 11 0 0.00 1.10 0.65 o
1 1 1 3226.74 3477.83 27.23 o
2 1 1 1330.44 1268.42 11.01 o
3 1 1 8.92 8.34 1.32 o
0 2 1 110.14 99.86 5.81 o
1 2 1 122.65 105.14 2.35 o
2 2 1 153.37 137.53 3.36 o
3 2 1 47.06 51.50 1.47 o
4 2 1 0.36 0.81 0.26 o
1 3 1 220.50 224.90 9.92 o
2 3 1 26.60 22.79 0.64 o
3 3 1 106.53 127.61 1.99 o
4 3 1 1.31 0.66 0.28 o
0 4 1 38.54 35.78 1.27 o
1 4 1 2.33 2.43 0.20 o
2 4 1 22.40 20.80 3.34 o
3 4 1 21.98 18.63 1.08 o
4 4 1 4.19 3.56 0.72 o
1 5 1 80.19 86.47 7.68 o
2 5 1 17.79 15.29 2.20 o
3 5 1 6.58 7.18 0.57 o
4 5 1 8.58 10.51 1.72 o
5 5 1 0.49 0.27 0.55 o
0 6 1 53.16 52.40 4.90 o
1 6 1 2.87 1.86 0.24 o
2 6 1 0.96 0.63 0.23 o
3 6 1 1.00 0.96 0.36 o
4 6 1 3.38 6.17 0.89 o
5 6 1 7.05 4.15 1.23 o
1 7 1 3.83 2.70 0.45 o
2 7 1 5.61 8.41 1.52 o
3 7 1 8.97 13.15 1.11 o
4 7 1 0.24 -0.39 0.68 o
5 7 1 0.48 0.52 0.40 o
0 8 1 9.96 10.67 2.29 o
1 8 1 5.66 4.28 0.84 o
2 8 1 0.85 0.65 0.50 o
3 8 1 9.86 9.92 2.36 o
4 8 1 1.60 2.07 0.81 o
5 8 1 0.65 0.51 0.42 o
1 9 1 0.02 1.21 0.67 o
2 9 1 0.31 1.33 0.72 o
3 9 1 1.38 1.24 0.36 o
4 9 1 0.40 1.13 0.73 o
5 9 1 0.12 0.76 0.55 o
0 10 1 0.59 1.57 0.66 o
1 10 1 0.39 0.67 0.42 o
2 10 1 0.04 2.19 0.85 o
3 10 1 1.06 0.84 0.42 o
4 10 1 0.21 1.54 0.59 o
5 10 1 0.15 0.01 0.71 o
1 11 1 0.69 0.84 0.90 o
2 11 1 0.02 0.56 0.50 o
4 11 1 0.05 1.49 0.68 o
5 11 1 0.00 1.18 1.42 o
2 12 1 0.00 0.88 0.45 o
2 0 2 304.92 328.43 3.97 o
3 0 2 583.57 588.80 11.53 o
4 0 2 4.66 3.13 0.34 o
5 0 2 1.06 0.62 0.35 o
1 1 2 84.13 84.09 4.96 o
2 1 2 228.62 219.65 3.53 o
3 1 2 27.15 22.04 0.67 o
4 1 2 56.79 66.63 2.12 o
5 1 2 0.53 0.53 0.47 o
1 2 2 362.71 365.86 3.66 o
2 2 2 7.69 8.07 0.52 o
3 2 2 140.69 148.94 3.42 o
4 2 2 0.27 0.45 0.14 o
5 2 2 4.34 3.64 0.51 o
1 3 2 34.00 39.30 0.87 o
2 3 2 14.18 11.90 0.96 o
3 3 2 52.36 61.86 2.10 o
4 3 2 9.94 8.94 1.52 o
5 3 2 1.51 1.24 0.37 o
0 4 2 95.40 108.65 2.10 o
1 4 2 0.54 0.56 0.16 o
2 4 2 53.18 51.98 5.42 o
3 4 2 9.58 9.82 0.76 o
4 4 2 1.45 1.45 0.34 o
5 4 2 8.97 11.04 1.10 o
1 5 2 20.30 20.31 1.50 o
2 5 2 29.24 26.77 1.06 o
3 5 2 9.12 12.32 1.66 o
4 5 2 16.00 19.62 1.05 o
5 5 2 0.00 0.58 0.45 o
6 5 2 1.55 0.39 0.60 o
0 6 2 5.21 6.32 0.87 o
1 6 2 14.16 15.70 1.15 o
2 6 2 2.52 2.19 0.54 o
3 6 2 17.10 16.08 3.61 o
4 6 2 0.37 2.04 0.53 o
5 6 2 1.09 1.47 0.52 o
6 6 2 0.28 0.49 0.60 o
1 7 2 18.33 18.23 0.74 o
2 7 2 1.30 0.84 0.49 o
3 7 2 1.52 0.75 0.52 o
4 7 2 0.84 1.18 0.59 o
5 7 2 1.39 1.68 0.65 o
6 7 2 0.04 0.64 0.74 o
0 8 2 4.82 4.53 0.96 o
1 8 2 2.32 1.83 0.38 o
2 8 2 2.61 1.20 0.94 o
4 8 2 0.27 1.08 0.55 o
5 8 2 0.85 1.65 0.76 o
6 8 2 0.04 0.94 1.02 o
1 9 2 2.84 1.94 0.44 o
4 9 2 0.98 2.08 1.51 o
5 9 2 0.82 1.79 0.70 o
6 9 2 0.24 1.18 0.96 o
0 10 2 1.24 0.88 0.50 o
1 10 2 0.14 1.08 0.56 o
1 11 2 0.04 0.40 0.50 o
1 12 2 0.02 1.53 0.99 o
2 1 3 198.75 209.59 5.37 o
3 1 3 60.63 68.81 1.94 o
4 1 3 6.56 5.34 0.38 o
5 1 3 16.85 17.82 1.00 o
6 1 3 2.11 0.77 0.54 o
2 2 3 19.54 24.06 0.91 o
3 2 3 157.95 177.40 4.73 o
4 2 3 7.25 7.22 0.46 o
5 2 3 42.55 47.83 1.14 o
6 2 3 1.50 1.99 0.72 o
1 3 3 144.35 122.91 2.85 o
2 3 3 17.95 21.48 2.38 o
3 3 3 0.09 0.66 0.19 o
4 3 3 0.59 0.97 0.26 o
5 3 3 3.43 2.19 0.54 o
6 3 3 0.74 1.24 0.53 o
1 4 3 10.63 10.42 0.89 o
2 4 3 1.79 1.14 0.27 o
3 4 3 0.66 0.70 0.21 o
4 4 3 0.94 2.01 0.39 o
5 4 3 1.55 0.99 0.41 o
6 4 3 2.12 0.89 0.69 o
1 5 3 2.54 1.94 0.52 o
2 5 3 11.94 9.67 1.15 o
3 5 3 0.00 0.54 0.39 o
4 5 3 5.34 2.91 0.67 o
5 5 3 0.83 1.14 0.43 o
6 5 3 0.17 1.65 0.86 o
0 6 3 5.86 3.60 0.63 o
1 6 3 17.18 18.88 2.40 o
2 6 3 0.00 0.33 0.49 o
3 6 3 24.02 25.72 3.58 o
4 6 3 0.39 0.75 0.31 o
5 6 3 1.69 1.46 0.38 o
6 6 3 0.30 1.06 0.82 o
1 7 3 21.31 26.95 1.03 o
2 7 3 5.65 4.45 1.01 o
3 7 3 0.41 0.87 0.34 o
5 7 3 0.77 1.33 0.72 o
6 7 3 0.06 0.96 0.44 o
0 8 3 2.32 2.80 0.61 o
1 8 3 1.19 1.58 1.05 o
2 8 3 0.01 0.58 0.47 o
3 8 3 0.95 1.16 0.65 o
6 8 3 0.07 0.44 0.74 o
1 9 3 0.01 0.50 0.94 o
2 9 3 0.20 1.00 0.76 o
0 10 3 0.37 1.54 0.95 o
1 10 3 0.03 0.83 0.67 o
2 10 3 0.07 0.83 0.77 o
1 11 3 0.47 1.16 0.78 o
0 12 3 0.00 0.56 1.45 o
4 0 4 47.99 51.67 1.38 o
5 0 4 0.96 1.20 0.46 o
6 0 4 0.52 1.05 0.76 o
3 1 4 0.73 0.92 0.35 o
4 1 4 37.93 37.67 4.03 o
5 1 4 0.51 0.87 0.28 o
6 1 4 4.25 3.49 0.56 o
7 1 4 0.05 0.53 0.87 o
3 2 4 0.40 0.73 0.45 o
4 2 4 23.38 22.61 2.80 o
5 2 4 0.00 0.75 0.30 o
6 2 4 0.67 1.02 0.33 o
7 2 4 0.22 1.68 1.02 o
3 3 4 0.04 0.77 0.35 o
4 3 4 31.06 35.28 1.44 o
5 3 4 0.12 0.98 0.33 o
6 3 4 4.80 2.76 1.08 o
7 3 4 0.04 1.08 0.75 o
2 4 4 1.17 1.01 0.43 o
3 4 4 0.10 0.87 0.48 o
4 4 4 0.07 0.79 0.48 o
5 4 4 0.21 0.83 0.34 o
6 4 4 0.13 0.79 0.97 o
7 4 4 0.12 0.70 0.79 o
2 5 4 17.10 15.08 1.57 o
3 5 4 0.15 1.03 0.48 o
4 5 4 1.51 1.49 0.69 o
5 5 4 0.65 0.45 0.43 o
6 5 4 0.03 0.90 0.64 o
7 5 4 0.06 1.74 0.84 o
2 6 4 6.30 2.84 0.94 o
3 6 4 0.25 0.73 0.38 o
4 6 4 1.31 9.93 4.05 o
5 6 4 0.00 0.95 0.47 o
6 6 4 1.01 2.84 1.24 o
7 6 4 0.02 0.87 0.71 o
2 7 4 9.36 8.73 1.99 o
3 7 4 0.06 1.39 0.49 o
4 7 4 1.36 1.07 0.56 o
2 8 4 0.82 0.58 0.60 o
3 8 4 0.00 0.76 0.50 o
4 8 4 0.48 0.97 1.21 o
2 9 4 0.23 1.42 0.84 o
3 9 4 0.00 1.15 0.88 o
2 10 4 0.51 1.52 0.77 o
3 10 4 0.00 0.94 1.12 o
2 11 4 0.02 0.43 0.63 o
5 1 5 1.31 0.92 0.58 o
6 1 5 0.41 1.38 0.53 o
7 1 5 0.22 0.87 0.40 o
5 2 5 9.70 8.53 2.25 o
6 2 5 1.86 1.29 0.60 o
7 2 5 0.12 1.57 0.63 o
4 3 5 0.33 0.31 0.39 o
5 3 5 0.29 1.10 0.47 o
6 3 5 1.39 0.96 0.49 o
7 3 5 0.01 1.67 0.95 o
8 3 5 0.05 2.85 1.64 o
4 4 5 0.50 1.03 0.53 o
5 4 5 0.73 0.58 0.59 o
6 4 5 0.33 0.91 0.53 o
4 5 5 1.21 0.86 0.71 o
5 5 5 0.44 1.45 0.64 o
6 5 5 0.09 1.59 0.90 o
4 6 5 0.97 0.48 0.54 o
5 6 5 0.17 0.38 1.17 o
4 7 5 0.15 0.75 0.49 o
5 7 5 0.34 1.26 0.57 o
4 8 5 0.20 1.88 1.39 o
5 8 5 0.04 1.98 1.95 o
4 9 5 0.00 1.43 1.41 o
7 2 6 0.17 0.97 0.60 o
7 3 6 0.76 2.44 1.44 o
6 5 6 0.12 0.71 0.73 o
