#------------------------------------------------------------------------------
#$Date: 2016-03-24 03:00:20 +0200 (Thu, 24 Mar 2016) $
#$Revision: 179608 $
#$URL: svn://www.crystallography.net/cod/cif/4/50/72/4507232.cif $
#------------------------------------------------------------------------------
#
# This file is available in the Crystallography Open Database (COD),
# http://www.crystallography.net/
#
# All data on this site have been placed in the public domain by the
# contributors.
#
data_4507232
loop_
_publ_author_name
'Zieli\'nski, Witold'
'Katrusiak, Andrzej'
_publ_section_title
;
 Hydrogen Bonds NH&#x00B7;&#x00B7;&#x00B7;N in Compressed Benzimidazole
 Polymorphs
;
_journal_issue                   2
_journal_name_full               'Crystal Growth &amp; Design'
_journal_page_first              696
_journal_paper_doi               10.1021/cg301374z
_journal_volume                  13
_journal_year                    2013
_chemical_formula_moiety         'C7 H6 N2'
_chemical_formula_sum            'C7 H6 N2'
_chemical_formula_weight         118.14
_chemical_melting_point          443
_chemical_name_common            'benzimidazole phase \alpha'
_chemical_name_systematic
; 
1,3-benzodiazole
;
_space_group_IT_number           33
_symmetry_cell_setting           orthorhombic
_symmetry_space_group_name_Hall  'P 2c -2n'
_symmetry_space_group_name_H-M   'P n a 21'
_atom_sites_solution_hydrogens   geom
_atom_sites_solution_primary     direct
_atom_sites_solution_secondary   difmap
_audit_creation_method           SHELXL-97
_cell_angle_alpha                90.00
_cell_angle_beta                 90.00
_cell_angle_gamma                90.00
_cell_formula_units_Z            4
_cell_length_a                   13.402(2)
_cell_length_b                   6.798(3)
_cell_length_c                   6.9428(7)
_cell_measurement_reflns_used    1775
_cell_measurement_temperature    296(2)
_cell_measurement_theta_max      26.99
_cell_measurement_theta_min      3.04
_cell_volume                     632.5(3)
_computing_cell_refinement       'CrysAlisRED (Oxford Diffraction, 2004)'
_computing_data_collection       'CrysAlisCCD (Oxford Diffraction, 2004)'
_computing_data_reduction
'CrysAlisRED (Oxford Diffraction, 2004); REDSHABS (Katrusiak, A.  2003)'
_computing_molecular_graphics    'SHELXTL (Sheldrick, 1990)'
_computing_publication_material  'SHELXL--97 (Sheldrick, 1997)'
_computing_structure_refinement  'SHELXL--97 (Sheldrick, 1997)'
_computing_structure_solution    'SHELXS--97 (Sheldrick, 1997)'
_diffrn_ambient_environment      'diamond-anvil cell'
_diffrn_ambient_pressure         60000
_diffrn_ambient_temperature      296(2)
_diffrn_measured_fraction_theta_full 0.209
_diffrn_measured_fraction_theta_max 0.209
_diffrn_measurement_device_type  'KUMA KM-4 CCD'
_diffrn_measurement_method       '\f- and \w-scans'
_diffrn_radiation_monochromator  graphite
_diffrn_radiation_source         'fine-focus sealed tube'
_diffrn_radiation_type           MoK\a
_diffrn_radiation_wavelength     0.71073
_diffrn_reflns_av_R_equivalents  0.0533
_diffrn_reflns_av_sigmaI/netI    0.0324
_diffrn_reflns_limit_h_max       15
_diffrn_reflns_limit_h_min       -15
_diffrn_reflns_limit_k_max       2
_diffrn_reflns_limit_k_min       -2
_diffrn_reflns_limit_l_max       8
_diffrn_reflns_limit_l_min       -8
_diffrn_reflns_number            1775
_diffrn_reflns_theta_full        26.99
_diffrn_reflns_theta_max         26.99
_diffrn_reflns_theta_min         3.04
_diffrn_standards_decay_%        0
_diffrn_standards_interval_count 0
_diffrn_standards_number         0
_exptl_absorpt_coefficient_mu    0.078
_exptl_absorpt_correction_T_max  0.96
_exptl_absorpt_correction_T_min  0.67
_exptl_absorpt_correction_type   integration
_exptl_absorpt_process_details
;
 Correction for absorption of the diamond-anvil cell and the sample 
 were made using program REDSHABS (Katrusiak, A. (2003) REDSHABS. Adam
 Mickiewicz University Pozna\'n; Katrusiak, A. (2004) Z. Kristallogr.
 219, 461-467).
;
_exptl_crystal_colour            colourless
_exptl_crystal_density_diffrn    1.241
_exptl_crystal_density_method    'not measured'
_exptl_crystal_description       plate
_exptl_crystal_F_000             248
_exptl_crystal_size_max          0.40
_exptl_crystal_size_mid          0.35
_exptl_crystal_size_min          0.25
_refine_diff_density_max         0.086
_refine_diff_density_min         -0.106
_refine_diff_density_rms         0.026
_refine_ls_abs_structure_details 'Flack H D (1983), Acta Cryst. A39, 876-881'
_refine_ls_abs_structure_Flack   -2(10)
_refine_ls_extinction_coef       0.017(6)
_refine_ls_extinction_expression Fc^*^=kFc[1+0.001xFc^2^\l^3^/sin(2\q)]^-1/4^
_refine_ls_extinction_method     SHELXL
_refine_ls_goodness_of_fit_ref   1.118
_refine_ls_hydrogen_treatment    mixed
_refine_ls_matrix_type           full
_refine_ls_number_parameters     24
_refine_ls_number_reflns         290
_refine_ls_number_restraints     3
_refine_ls_restrained_S_all      1.118
_refine_ls_R_factor_all          0.0746
_refine_ls_R_factor_gt           0.0649
_refine_ls_shift/su_max          0.000
_refine_ls_shift/su_mean         0.000
_refine_ls_structure_factor_coef Fsqd
_refine_ls_weighting_details
'calc w=1/[\s^2^(Fo^2^)+(0.0394P)^2^+0.8302P] where P=(Fo^2^+2Fc^2^)/3'
_refine_ls_weighting_scheme      calc
_refine_ls_wR_factor_gt          0.1197
_refine_ls_wR_factor_ref         0.1234
_reflns_number_gt                262
_reflns_number_total             290
_reflns_threshold_expression     >2sigma(I)
_cod_data_source_file            cg301374z_si_002.cif
_cod_data_source_block           bzima_0.06GPa
_cod_database_code               4507232
loop_
_symmetry_equiv_pos_as_xyz
'x, y, z'
'-x, -y, z+1/2'
'x+1/2, -y+1/2, z'
'-x+1/2, y+1/2, z+1/2'
loop_
_atom_site_label
_atom_site_type_symbol
_atom_site_fract_x
_atom_site_fract_y
_atom_site_fract_z
_atom_site_U_iso_or_equiv
_atom_site_adp_type
_atom_site_occupancy
_atom_site_symmetry_multiplicity
_atom_site_calc_flag
_atom_site_refinement_flags
N1 N 0.2566(4) 0.919(2) 0.5641(8) 0.043(2) Uiso 1 1 d D
H1 H 0.2239 0.8608 0.4740 0.15(4) Uiso 1 1 calc R
C2 C 0.2416(5) 1.100(2) 0.6311(9) 0.048(2) Uiso 1 1 d D
H2 H 0.1918 1.1828 0.5847 0.057 Uiso 1 1 calc R
N3 N 0.3044(3) 1.153(3) 0.7702(6) 0.0384(16) Uiso 1 1 d D
C4 C 0.4443(2) 0.9585(17) 0.9154(3) 0.0438(19) Uiso 1 1 d .
H4 H 0.4648 1.0562 1.0004 0.053 Uiso 1 1 calc R
C5 C 0.4941(2) 0.7792(17) 0.9105(3) 0.051(3) Uiso 1 1 d R
H5 H 0.5479 0.7570 0.9922 0.061 Uiso 1 1 calc R
C6 C 0.4635(2) 0.6332(17) 0.7834(3) 0.055(2) Uiso 1 1 d R
H6 H 0.4969 0.5132 0.7801 0.066 Uiso 1 1 calc R
C7 C 0.3831(2) 0.6663(17) 0.6613(3) 0.044(2) Uiso 1 1 d R
H7 H 0.3626 0.5686 0.5763 0.052 Uiso 1 1 calc R
C8 C 0.3333(2) 0.8456(17) 0.6662(3) 0.0316(18) Uiso 1 1 d R
C9 C 0.3639(2) 0.9917(17) 0.7933(3) 0.0331(16) Uiso 1 1 d R
loop_
_atom_type_symbol
_atom_type_description
_atom_type_scat_dispersion_real
_atom_type_scat_dispersion_imag
_atom_type_scat_source
C C 0.0033 0.0016 'International Tables Vol C Tables 4.2.6.8 and 6.1.1.4'
H H 0.0000 0.0000 'International Tables Vol C Tables 4.2.6.8 and 6.1.1.4'
N N 0.0061 0.0033 'International Tables Vol C Tables 4.2.6.8 and 6.1.1.4'
loop_
_geom_angle_atom_site_label_1
_geom_angle_atom_site_label_2
_geom_angle_atom_site_label_3
_geom_angle
C2 N1 C8 105.9(9)
C2 N1 H1 127.0
C8 N1 H1 127.0
N1 C2 N3 114.0(10)
N1 C2 H2 123.0
N3 C2 H2 123.0
C2 N3 C9 103.9(11)
C5 C4 C9 120.0
C5 C4 H4 120.0
C9 C4 H4 120.0
C4 C5 C6 120.0
C4 C5 H5 120.0
C6 C5 H5 120.0
C7 C6 C5 120.0
C7 C6 H6 120.0
C5 C6 H6 120.0
C6 C7 C8 120.0
C6 C7 H7 120.0
C8 C7 H7 120.0
N1 C8 C9 107.2(8)
N1 C8 C7 132.8(8)
C9 C8 C7 120.0
N3 C9 C8 109.1(4)
N3 C9 C4 131.0(4)
C8 C9 C4 120.0
loop_
_geom_bond_atom_site_label_1
_geom_bond_atom_site_label_2
_geom_bond_distance
N1 C2 1.333(10)
N1 C8 1.344(9)
N1 H1 0.8600
C2 N3 1.329(7)
C2 H2 0.9300
N3 C9 1.364(17)
C4 C5 1.3898
C4 C9 1.3901
C4 H4 0.9300
C5 C6 1.3901
C5 H5 0.9300
C6 C7 1.3899
C6 H6 0.9300
C7 C8 1.3901
C7 H7 0.9300
C8 C9 1.3900
loop_
_refln_index_h
_refln_index_k
_refln_index_l
_refln_F_squared_calc
_refln_F_squared_meas
_refln_F_squared_sigma
_refln_observed_status
0 0 -8 207.42 185.02 22.78 o
2 0 -8 1.50 7.50 2.86 o
4 0 -8 5.07 10.98 3.54 o
2 0 -7 117.61 119.36 3.97 o
4 0 -7 6.86 59.82 28.13 o
6 0 -7 25.30 19.55 4.90 o
0 1 -7 30.92 26.65 5.51 o
1 1 -7 13.84 16.66 4.54 o
2 1 -7 81.84 69.67 4.99 o
3 1 -7 4.17 6.86 3.68 o
4 1 -7 15.54 21.97 4.77 o
5 1 -7 18.49 12.55 3.76 o
6 1 -7 12.18 9.06 3.91 o
7 1 -7 4.33 12.11 4.45 o
8 1 -7 1.33 7.83 7.05 o
9 1 -7 1.78 7.05 7.21 o
10 1 -7 0.22 4.62 7.26 o
0 0 -6 173.32 178.05 5.24 o
2 0 -6 12.02 10.58 1.61 o
4 0 -6 160.22 163.63 4.32 o
6 0 -6 10.80 7.26 2.17 o
8 0 -6 3.35 1.11 7.54 o
1 1 -6 13.21 13.28 2.59 o
2 1 -6 41.02 40.58 3.15 o
3 1 -6 38.37 36.36 3.48 o
4 1 -6 56.18 62.57 3.60 o
5 1 -6 3.14 7.02 2.15 o
6 1 -6 7.34 7.58 2.20 o
7 1 -6 28.47 24.23 2.71 o
8 1 -6 2.70 6.16 2.04 o
9 1 -6 3.89 6.72 3.00 o
10 1 -6 5.86 6.80 3.36 o
11 1 -6 3.05 8.37 3.17 o
12 1 -6 3.50 6.72 6.23 o
2 0 -5 6.71 7.96 1.47 o
4 0 -5 21.63 12.25 1.59 o
6 0 -5 140.86 162.81 5.02 o
8 0 -5 8.32 9.30 3.44 o
10 0 -5 25.39 26.59 8.00 o
0 1 -5 115.87 114.92 3.71 o
1 1 -5 92.46 89.58 2.22 o
2 1 -5 16.42 14.71 1.33 o
3 1 -5 49.54 46.69 2.13 o
4 1 -5 131.22 113.38 3.35 o
5 1 -5 33.38 29.67 2.05 o
6 1 -5 67.00 74.37 2.70 o
7 1 -5 75.39 76.47 2.93 o
8 1 -5 23.67 15.80 2.48 o
9 1 -5 10.58 9.99 2.72 o
10 1 -5 31.68 23.40 3.94 o
11 1 -5 4.02 7.17 3.19 o
12 1 -5 7.28 8.87 3.45 o
13 1 -5 5.05 7.32 4.50 o
14 1 -5 0.88 10.43 8.41 o
0 0 -4 41.23 42.38 1.89 o
2 0 -4 257.04 236.32 2.25 o
4 0 -4 54.83 60.78 1.48 o
6 0 -4 70.03 64.52 1.98 o
8 0 -4 88.75 103.17 5.01 o
10 0 -4 26.58 17.32 4.15 o
1 1 -4 28.49 25.20 1.14 o
2 1 -4 238.73 214.47 6.04 o
3 1 -4 278.60 294.54 3.32 o
4 1 -4 114.96 110.58 2.47 o
5 1 -4 12.38 8.17 1.66 o
6 1 -4 12.14 8.26 1.70 o
7 1 -4 8.91 9.14 1.55 o
8 1 -4 5.53 9.77 1.58 o
9 1 -4 111.61 111.95 4.16 o
10 1 -4 5.27 5.09 2.10 o
11 1 -4 7.96 8.24 2.26 o
12 1 -4 8.55 9.29 2.54 o
13 1 -4 0.47 4.70 3.37 o
14 1 -4 0.49 9.61 4.78 o
2 0 -3 117.64 120.31 2.07 o
4 0 -3 298.89 303.61 3.72 o
6 0 -3 116.73 113.27 3.06 o
8 0 -3 2.30 7.85 1.50 o
10 0 -3 41.83 26.45 8.78 o
0 1 -3 470.36 480.26 7.32 o
1 1 -3 69.33 297.78 97.07 o
2 1 -3 18.17 21.42 1.16 o
3 1 -3 45.82 36.09 1.37 o
4 1 -3 409.41 396.41 5.13 o
5 1 -3 888.54 934.46 16.93 o
6 1 -3 99.66 93.09 2.01 o
7 1 -3 63.29 54.09 2.14 o
8 1 -3 15.67 15.67 1.72 o
9 1 -3 51.56 46.73 2.39 o
10 1 -3 53.09 41.24 2.40 o
11 1 -3 67.16 63.36 2.77 o
12 1 -3 3.85 6.06 2.08 o
13 1 -3 33.83 28.65 3.17 o
14 1 -3 4.21 6.88 3.17 o
15 1 -3 10.56 27.14 10.06 o
0 0 -2 1008.23 953.23 12.86 o
2 0 -2 3648.35 3521.63 33.08 o
4 0 -2 644.19 663.22 7.59 o
6 0 -2 677.77 659.74 18.95 o
8 0 -2 192.89 175.12 4.26 o
10 0 -2 58.11 66.25 4.16 o
2 1 -2 438.90 425.88 11.09 o
3 1 -2 1057.49 1025.62 8.99 o
4 1 -2 560.51 537.57 9.95 o
5 1 -2 63.12 37.88 1.28 o
6 1 -2 86.76 103.03 1.94 o
7 1 -2 42.42 54.21 1.68 o
8 1 -2 80.19 64.27 1.85 o
9 1 -2 7.32 9.32 1.73 o
10 1 -2 4.80 4.03 1.44 o
11 1 -2 31.19 28.28 2.42 o
12 1 -2 1.30 7.91 1.99 o
13 1 -2 2.49 5.00 2.19 o
14 1 -2 4.90 7.34 2.57 o
15 1 -2 32.47 158.33 76.63 o
10 2 -2 19.43 13.40 6.18 o
11 2 -2 34.47 34.22 8.45 o
2 0 -1 6422.54 6533.50 38.76 o
4 0 -1 359.08 360.49 7.20 o
6 0 -1 371.06 388.64 10.50 o
8 0 -1 189.50 201.61 7.29 o
10 0 -1 21.77 24.22 2.21 o
3 1 -1 2274.37 2245.03 50.54 o
4 1 -1 433.69 442.29 8.08 o
5 1 -1 140.96 145.80 2.38 o
6 1 -1 87.06 84.59 1.43 o
7 1 -1 146.76 153.04 3.87 o
8 1 -1 93.11 86.79 2.00 o
9 1 -1 40.66 46.25 1.74 o
10 1 -1 34.26 34.96 2.05 o
11 1 -1 82.60 72.52 2.58 o
12 1 -1 3.40 5.81 2.10 o
13 1 -1 64.02 54.05 3.49 o
14 1 -1 14.06 8.12 3.03 o
15 1 -1 1.33 2.74 3.94 o
10 2 -1 7.69 3.34 3.79 o
11 2 -1 0.80 5.54 3.59 o
12 2 -1 50.66 31.79 8.00 o
2 0 0 332.24 313.22 4.55 o
4 0 0 1056.70 977.62 8.61 o
6 0 0 25.38 19.68 0.93 o
8 0 0 195.98 196.81 7.29 o
10 0 0 127.80 143.32 5.14 o
4 1 0 177.95 213.61 3.40 o
5 1 0 65.17 61.81 1.80 o
6 1 0 34.18 35.87 1.24 o
7 1 0 2.27 2.14 0.83 o
8 1 0 100.18 145.45 3.73 o
9 1 0 79.48 57.96 1.95 o
10 1 0 51.79 50.61 2.40 o
11 1 0 4.32 4.73 1.58 o
12 1 0 4.08 5.25 1.69 o
13 1 0 5.43 5.38 1.70 o
14 1 0 26.71 25.31 3.29 o
15 1 0 19.75 13.46 3.97 o
11 2 0 201.71 140.33 16.51 o
12 2 0 7.74 10.85 3.19 o
2 0 1 6422.51 6424.29 49.41 o
4 0 1 358.79 378.47 3.62 o
6 0 1 371.45 390.27 7.61 o
8 0 1 189.40 210.56 7.02 o
10 0 1 21.80 23.39 2.02 o
3 1 1 2274.05 2419.74 89.24 o
4 1 1 433.64 442.04 7.87 o
5 1 1 140.87 146.45 1.92 o
6 1 1 86.97 79.91 2.94 o
7 1 1 146.78 157.12 2.78 o
8 1 1 93.13 87.80 1.87 o
9 1 1 40.71 47.73 1.98 o
10 1 1 34.25 35.39 1.97 o
11 1 1 82.67 74.80 2.57 o
12 1 1 3.41 5.36 1.72 o
13 1 1 64.00 51.86 3.31 o
14 1 1 14.06 5.99 3.04 o
15 1 1 1.33 4.08 4.57 o
0 0 2 1008.16 971.80 15.31 o
2 0 2 3648.22 3644.10 45.34 o
4 0 2 643.76 685.27 7.95 o
6 0 2 677.75 686.78 11.75 o
8 0 2 193.12 194.84 3.96 o
10 0 2 58.17 59.48 2.93 o
2 1 2 439.12 460.15 19.75 o
3 1 2 1057.60 1058.73 17.66 o
4 1 2 560.67 533.20 7.40 o
5 1 2 63.04 39.09 1.22 o
6 1 2 86.64 106.19 1.91 o
7 1 2 42.42 55.11 1.24 o
8 1 2 80.18 69.56 2.05 o
9 1 2 7.32 13.18 1.52 o
10 1 2 4.80 5.32 1.36 o
11 1 2 31.15 31.60 2.53 o
12 1 2 1.30 7.59 2.13 o
13 1 2 2.50 6.97 2.35 o
14 1 2 4.90 5.98 2.29 o
15 1 2 32.48 104.65 51.30 o
2 0 3 117.55 124.88 2.07 o
4 0 3 298.72 320.63 3.76 o
6 0 3 116.78 110.57 2.79 o
8 0 3 2.30 7.50 1.54 o
10 0 3 41.79 31.92 3.51 o
0 1 3 470.53 503.88 12.23 o
1 1 3 69.36 77.62 1.65 o
2 1 3 18.22 21.15 1.06 o
3 1 3 45.88 37.93 1.61 o
4 1 3 409.22 416.30 7.10 o
5 1 3 888.78 944.35 17.94 o
6 1 3 99.63 93.18 1.80 o
7 1 3 63.16 55.64 1.65 o
8 1 3 15.70 18.04 1.64 o
9 1 3 51.56 50.69 2.32 o
10 1 3 53.08 43.26 2.40 o
11 1 3 67.22 67.73 2.99 o
12 1 3 3.86 7.12 2.07 o
13 1 3 33.87 28.31 3.02 o
14 1 3 4.21 6.09 2.97 o
15 1 3 10.57 11.18 5.09 o
0 0 4 41.35 46.14 1.57 o
2 0 4 257.30 245.14 2.92 o
4 0 4 54.85 63.63 1.88 o
6 0 4 70.06 69.91 1.90 o
8 0 4 88.74 112.19 3.70 o
10 0 4 26.55 21.01 4.28 o
1 1 4 28.49 27.82 0.97 o
2 1 4 238.71 230.11 4.21 o
3 1 4 278.61 308.01 5.61 o
4 1 4 114.97 112.52 1.75 o
5 1 4 12.35 10.39 1.46 o
6 1 4 12.12 9.10 1.43 o
7 1 4 8.89 7.53 1.69 o
8 1 4 5.52 11.79 1.82 o
9 1 4 111.59 117.22 3.94 o
10 1 4 5.28 4.61 1.74 o
11 1 4 7.95 9.31 2.69 o
12 1 4 8.56 9.45 2.86 o
13 1 4 0.48 7.91 3.38 o
14 1 4 0.49 6.68 5.29 o
2 0 5 6.73 7.34 1.37 o
4 0 5 21.69 17.33 1.99 o
6 0 5 140.73 182.14 3.63 o
8 0 5 8.30 11.70 3.31 o
10 0 5 25.40 22.31 6.18 o
0 1 5 115.89 125.31 4.78 o
1 1 5 92.55 99.40 2.13 o
2 1 5 16.42 16.95 1.48 o
3 1 5 49.63 44.77 1.87 o
4 1 5 131.20 117.79 4.71 o
5 1 5 33.33 34.10 2.23 o
6 1 5 67.01 81.39 2.90 o
7 1 5 75.42 77.29 3.14 o
8 1 5 23.63 19.24 2.41 o
9 1 5 10.59 12.01 3.68 o
10 1 5 31.69 25.92 4.18 o
11 1 5 4.02 5.01 3.22 o
12 1 5 7.26 7.37 3.88 o
13 1 5 5.05 8.66 5.36 o
14 1 5 0.88 6.02 5.65 o
0 0 6 173.52 195.82 5.84 o
2 0 6 12.04 11.39 1.90 o
4 0 6 160.28 176.63 4.01 o
6 0 6 10.81 7.92 2.48 o
8 0 6 3.33 5.24 3.81 o
1 1 6 13.20 16.03 2.66 o
2 1 6 40.99 44.34 2.87 o
3 1 6 38.40 39.58 3.12 o
4 1 6 56.15 63.25 3.75 o
5 1 6 3.13 7.56 2.58 o
6 1 6 7.36 9.04 2.25 o
7 1 6 28.45 30.55 3.64 o
8 1 6 2.70 5.38 2.23 o
9 1 6 3.89 8.34 3.08 o
10 1 6 5.86 9.36 3.18 o
11 1 6 3.06 4.51 3.45 o
12 1 6 3.50 12.57 7.59 o
2 0 7 117.66 131.00 4.61 o
4 0 7 6.87 54.00 23.06 o
6 0 7 25.28 19.21 4.45 o
0 1 7 30.84 35.55 11.77 o
1 1 7 13.84 10.67 4.14 o
2 1 7 81.82 87.28 7.13 o
3 1 7 4.17 15.17 8.96 o
4 1 7 15.56 23.23 4.95 o
5 1 7 18.52 14.82 5.40 o
6 1 7 12.18 12.09 3.91 o
7 1 7 4.34 9.97 3.52 o
8 1 7 1.33 2.84 7.21 o
9 1 7 1.77 3.55 6.60 o
10 1 7 0.22 12.20 9.07 o
0 0 8 207.40 227.94 10.45 o
2 0 8 1.50 5.11 2.67 o
4 0 8 5.08 5.08 3.40 o
