#------------------------------------------------------------------------------
#$Date: 2016-03-24 14:18:17 +0200 (Thu, 24 Mar 2016) $
#$Revision: 179659 $
#$URL: svn://www.crystallography.net/cod/cif/4/51/12/4511277.cif $
#------------------------------------------------------------------------------
#
# This file is available in the Crystallography Open Database (COD),
# http://www.crystallography.net/
#
# All data on this site have been placed in the public domain by the
# contributors.
#
data_4511277
loop_
_publ_author_name
'Ridout, Joe'
'Price, Louise S.'
'Howard, Judith A. K.'
'Probert, Michael R.'
_publ_section_title
;
 Polymorphism Arising from Differing Rates of Compression of Liquids
;
_journal_issue                   7
_journal_name_full               'Crystal Growth &amp; Design'
_journal_page_first              3384
_journal_paper_doi               10.1021/cg500331u
_journal_volume                  14
_journal_year                    2014
_chemical_absolute_configuration unk
_chemical_formula_moiety         'C8 H5 F'
_chemical_formula_sum            'C8 H5 F'
_chemical_formula_weight         120.12
_chemical_name_systematic        2-fluorophenylacetlyene
_space_group_crystal_system      orthorhombic
_space_group_IT_number           33
_space_group_name_Hall           'P 2c -2n'
_space_group_name_H-M_alt        'P n a 21'
_symmetry_space_group_name_Hall  'P 2c -2n'
_symmetry_space_group_name_H-M   'P n a 21'
_atom_sites_solution_hydrogens   geom
_atom_sites_solution_primary     dual
_atom_sites_solution_secondary   difmap
_audit_creation_date             2014-03-04
_audit_creation_method
;
  Olex2 1.2-alpha
  (compiled 2013.04.25 svn.r2679, GUI svn.r4466)
;
_cell_angle_alpha                90.00
_cell_angle_beta                 90.00
_cell_angle_gamma                90.00
_cell_formula_units_Z            4
_cell_length_a                   7.578(6)
_cell_length_b                   13.024(14)
_cell_length_c                   6.171(5)
_cell_measurement_reflns_used    528
_cell_measurement_temperature    293
_cell_measurement_theta_max      15.97
_cell_measurement_theta_min      3.51
_cell_volume                     609.1(10)
_computing_cell_refinement       'SAINT v7.68A (Bruker, 2009)'
_computing_data_collection       'APEX2 (Bruker, 2010)'
_computing_data_reduction        'SAINT v7.60A (Bruker, 2009)'
_computing_molecular_graphics    'Olex2 (Dolomanov et al., 2009)'
_computing_publication_material  'Olex2 (Dolomanov et al., 2009)'
_computing_structure_refinement
;
XL, G.M. Sheldrick, Acta Cryst.
(2008). A64, 112-122
;
_computing_structure_solution
;
XM, G.M. Sheldrick, Acta Cryst.
(2008). A64, 112-122
;
_diffrn_ambient_temperature      293
_diffrn_detector                 'CCD area detector'
_diffrn_detector_area_resol_mean 7.9
_diffrn_detector_type            'Bruker APEXII CCD area detector'
_diffrn_measured_fraction_theta_full 0.502
_diffrn_measured_fraction_theta_max 0.502
_diffrn_measurement_device       'four-circle diffractometer'
_diffrn_measurement_device_type  'Bruker APEXII CCD area detector'
_diffrn_measurement_method       '\f scans'
_diffrn_radiation_collimation    'Multilayer mirrors'
_diffrn_radiation_monochromator  'Bruker Helios multilayer mirrors'
_diffrn_radiation_probe          x-ray
_diffrn_radiation_type           'Ag K\a'
_diffrn_radiation_wavelength     0.56087
_diffrn_radiation_xray_symbol    K-L~3~
_diffrn_reflns_av_R_equivalents  0.0472
_diffrn_reflns_av_unetI/netI     0.0348
_diffrn_reflns_limit_h_max       6
_diffrn_reflns_limit_h_min       -6
_diffrn_reflns_limit_k_max       5
_diffrn_reflns_limit_k_min       -6
_diffrn_reflns_limit_l_max       5
_diffrn_reflns_limit_l_min       -5
_diffrn_reflns_number            1591
_diffrn_reflns_theta_full        14.33
_diffrn_reflns_theta_max         14.33
_diffrn_reflns_theta_min         2.45
_diffrn_source                   'Microfocus sealed tube'
_diffrn_source_target            Ag
_diffrn_source_type              'Incoatec IuS'
_diffrn_standards_number         0
_exptl_absorpt_coefficient_mu    0.059
_exptl_absorpt_correction_T_max  0.7442
_exptl_absorpt_correction_T_min  0.6049
_exptl_absorpt_correction_type   multi-scan
_exptl_absorpt_process_details
;
SADABS-2008/1 (Bruker,2008) was used for absorption correction.
wR2(int) was 0.0483 before and 0.0283 after correction.
The Ratio of minimum to maximum transmission is 0.8128.
The \l/2 correction factor is 0.0015.
;
_exptl_crystal_colour            'clear light colourless'
_exptl_crystal_colour_lustre     clear
_exptl_crystal_colour_modifier   light
_exptl_crystal_colour_primary    colourless
_exptl_crystal_density_diffrn    1.310
_exptl_crystal_density_meas      ?
_exptl_crystal_density_method    'not measured'
_exptl_crystal_description       Cylinder
_exptl_crystal_F_000             248
_exptl_crystal_recrystallization_method
'Crystallised at high-pressure in a diamond anvil cell with a high rate of compression'
_exptl_crystal_size_max          0.25
_exptl_crystal_size_mid          0.25
_exptl_crystal_size_min          0.1
_exptl_crystal_size_rad          0.25
_refine_diff_density_max         0.087
_refine_diff_density_min         -0.090
_refine_diff_density_rms         0.028
_refine_ls_abs_structure_details 'Flack H D (1983), Acta Cryst. A39, 876-881'
_refine_ls_abs_structure_Flack   8(10)
_refine_ls_extinction_method     none
_refine_ls_goodness_of_fit_ref   1.168
_refine_ls_hydrogen_treatment    constr
_refine_ls_matrix_type           full
_refine_ls_number_parameters     32
_refine_ls_number_reflns         231
_refine_ls_number_restraints     1
_refine_ls_restrained_S_all      1.165
_refine_ls_R_factor_all          0.0788
_refine_ls_R_factor_gt           0.0520
_refine_ls_shift/su_max          0.000
_refine_ls_shift/su_mean         0.000
_refine_ls_structure_factor_coef Fsqd
_refine_ls_weighting_details
'calc w=1/[\s^2^(Fo^2^)+(0.0327P)^2^+0.8111P] where P=(Fo^2^+2Fc^2^)/3'
_refine_ls_weighting_scheme      calc
_refine_ls_wR_factor_gt          0.1069
_refine_ls_wR_factor_ref         0.1194
_reflns_number_gt                184
_reflns_number_total             231
_reflns_threshold_expression     >2sigma(I)
_cod_data_source_file            cg500331u_si_001.cif
_cod_data_source_block           testort
_cod_depositor_comments
;Adding full bibliography for 4511275--4511277.cif.

The following automatic conversions were performed:

'_exptl_crystal_density_meas' value 'not_measured' was changed to '?'
- the value is perceived as not measured.

Automatic conversion script
Id: cif_fix_values 3008 2015-01-20 13:52:24Z robertas 
;
_cod_original_cell_volume        609.0(9)
_cod_database_code               4511277
#BEGIN Tags that were not found in dictionaries:
_olex2_refinement_description
;
1. Others
 Fixed Uiso: H4(0.086) H8(0.086) H7(0.086) H6(0.086) H5(0.086) H1(0.086)
 Fixed X: H4(0.3123) H8(0.4777) H7(0.4069) H6(0.2888) H5(0.2415) H1(0.4867)
 Fixed Y: H4(0.6367) H8(0.8527) H7(0.9795) H6(0.9348) H5(0.7634) H1(0.5349)
 Fixed Z: H4(0.5996) H8(0.1813) H7(0.4308) H6(0.7646) H5(0.849) H1(-0.0152)
;
_shelx_res_file
;
TITL TestOrt in Pna21 #33
CELL 0.56086 7.5775 13.0243 6.1705 90 90 90
ZERR 4 0.006 0.0143 0.0046 0 0 0
LATT -1
SYMM -X,-Y,0.5+Z
SYMM 0.5-X,0.5+Y,0.5+Z
SYMM 0.5+X,0.5-Y,+Z
 
SFAC C H F
UNIT 32 20 4
EADP F2 F1
EADP C6 C5 C4 C3 C7 C8 C2 C1
 
L.S. 4 0 0 511
PLAN  20
SIZE 0.1 0.25 0.25
TEMP 19.85
REM TRY 2 FINAL CC 74.93 TIME 0 SECS
REM Fragments: 8
REM reset to Pna21 #33
more -3
fmap 2
acta
REM <HKL>TestOrt.hkl</HKL>
 
WGHT    0.032700    0.811100
FVAR       0.37040   0.25747
AFIX  66
C4    1    0.331290    0.705387    0.565758    11.00000    0.07776    0.06169 =
         0.07655   -0.00142   -0.02008    0.00708
PART 2
AFIX  43
H4    2    0.312334    0.636684    0.599599    21.00000   -1.20000
AFIX  65
PART 0
C3    1    0.402038    0.732125    0.365730    11.00000    0.07776    0.06169 =
         0.07655   -0.00142   -0.02008    0.00708
C8    1    0.430370    0.834808    0.315150    11.00000    0.07776    0.06169 =
         0.07655   -0.00142   -0.02008    0.00708
PART 1
AFIX  43
H8    2    0.477705    0.852697    0.181318   -21.00000   -1.20000
AFIX  65
PART 0
C7    1    0.387955    0.910754    0.464596    11.00000    0.07776    0.06169 =
         0.07655   -0.00142   -0.02008    0.00708
AFIX  43
H7    2    0.406911    0.979456    0.430754    11.00000   -1.20000
AFIX  65
C6    1    0.317207    0.884018    0.664624    11.00000    0.07776    0.06169 =
         0.07655   -0.00142   -0.02008    0.00708
AFIX  43
H6    2    0.288828    0.934831    0.764613    11.00000   -1.20000
AFIX  65
C5    1    0.288874    0.781334    0.715207    11.00000    0.07776    0.06169 =
         0.07655   -0.00142   -0.02008    0.00708
AFIX  43
H5    2    0.241539    0.763446    0.849039    11.00000   -1.20000
AFIX   0
C2    1    0.444644    0.652506    0.212559    11.00000    0.07776    0.06169 =
         0.07655   -0.00142   -0.02008    0.00708
C1    1    0.468109    0.586928    0.085513    11.00000    0.07776    0.06169 =
         0.07655   -0.00142   -0.02008    0.00708
AFIX 163
H1    2    0.486714    0.534931   -0.015224    11.00000   -1.20000
AFIX   0
PART 1
F1    3    0.299278    0.616247    0.611115   -21.00000    0.10738    0.11409 =
         0.06815    0.00723    0.01572    0.01501
PART 0
PART 2
F2    3    0.494143    0.858696    0.145099    21.00000    0.10738    0.11409 =
         0.06815    0.00723    0.01572    0.01501
HKLF 4
 
REM  TestOrt in Pna21 #33
REM R1 =  0.0520 for    184 Fo > 4sig(Fo)  and  0.0788 for all    231 data
REM     32 parameters refined using      1 restraints
 
END  
     
WGHT      0.0328      0.8094 
REM Highest difference peak  0.087,  deepest hole -0.090,  1-sigma level  0.028
Q1    1   0.0991  0.8613  0.8774  11.00000  0.05    0.09
Q2    1   0.5424  0.5744 -0.1045  11.00000  0.05    0.08
Q3    1   0.4231  0.6447 -0.0443  11.00000  0.05    0.08
Q4    1   0.5448  0.9044  0.4022  11.00000  0.05    0.08
Q5    1   0.1641  0.7835  1.0699  11.00000  0.05    0.08
Q6    1   0.5092  0.5495 -0.1238  11.00000  0.05    0.08
Q7    1   0.5706  0.5489  0.1142  11.00000  0.05    0.08
Q8    1   0.3757  0.9057  0.3387  11.00000  0.05    0.08
Q9    1   0.4996  1.0315  0.3847  11.00000  0.05    0.07
Q10   1   0.5481  0.8638  0.6951  11.00000  0.05    0.07
Q11   1   0.5801  0.8332  0.4364  11.00000  0.05    0.07
Q12   1   0.5173  0.7799  0.7767  11.00000  0.05    0.07
Q13   1   0.3858  0.7845  0.3687  11.00000  0.05    0.07
Q14   1   0.2164  0.7074  0.2732  11.00000  0.05    0.06
Q15   1   0.3827  0.5271  0.0631  11.00000  0.05    0.06
Q16   1   0.7020  0.5835  0.2101  11.00000  0.05    0.06
Q17   1   0.4557  0.4216  0.0817  11.00000  0.05    0.06
Q18   1   0.3291  0.4589 -0.1911  11.00000  0.05    0.06
Q19   1   0.4037  0.9549  0.2794  11.00000  0.05    0.06
Q20   1   0.3794  0.6546  0.1823  11.00000  0.05    0.05

REM The information below was added by Olex2.
REM
REM R1 = 0.0520 for 184 Fo > 4sig(Fo) and 0.0788 for all 1847 data
REM n/a parameters refined using n/a restraints
REM Highest difference peak 0.09, deepest hole -0.09
REM Mean Shift 0, Max Shift 0.

REM +++ Tabular Listing of Refinement Information +++
REM R1_all = 0.0788
REM R1_gt = 0.0520
REM wR_ref = 0.1194
REM GOOF = 1.168
REM Shift_max = 0
REM Shift_mean = 0
REM Reflections_all = 1847
REM Reflections_gt = 184
REM Parameters = n/a
REM Hole = 0.09
REM Peak = -0.09
REM Flack = n/a
;
#END Tags that were not found in dictionaries
loop_
_space_group_symop_id
_space_group_symop_operation_xyz
1 'x, y, z'
2 '-x, -y, z+1/2'
3 '-x+1/2, y+1/2, z+1/2'
4 'x+1/2, -y+1/2, z'
loop_
_atom_site_label
_atom_site_type_symbol
_atom_site_fract_x
_atom_site_fract_y
_atom_site_fract_z
_atom_site_U_iso_or_equiv
_atom_site_adp_type
_atom_site_occupancy
_atom_site_symmetry_multiplicity
_atom_site_calc_flag
_atom_site_refinement_flags
_atom_site_disorder_assembly
_atom_site_disorder_group
C4 C 0.3313(13) 0.7054(9) 0.5658(15) 0.072(5) Uani 1 1 d G . .
H4 H 0.3123 0.6367 0.5996 0.086 Uiso 0.257(9) 1 calc PR A 2
C3 C 0.4020(11) 0.7321(11) 0.3657(12) 0.072(5) Uani 1 1 d G A .
C8 C 0.4304(7) 0.8348(12) 0.3151(12) 0.072(5) Uani 1 1 d G A .
H8 H 0.4777 0.8527 0.1813 0.086 Uiso 0.743(9) 1 calc PR A 1
C7 C 0.3880(9) 0.9108(9) 0.465(2) 0.072(5) Uani 1 1 d G A .
H7 H 0.4069 0.9795 0.4308 0.086 Uiso 1 1 calc R . .
C6 C 0.3172(8) 0.8840(10) 0.6646(16) 0.072(5) Uani 1 1 d G A .
H6 H 0.2888 0.9348 0.7646 0.086 Uiso 1 1 calc R . .
C5 C 0.2889(9) 0.7813(11) 0.7152(9) 0.072(5) Uani 1 1 d G A .
H5 H 0.2415 0.7634 0.8490 0.086 Uiso 1 1 calc R . .
C2 C 0.4446(17) 0.653(2) 0.2126(19) 0.072(5) Uani 1 1 d . . .
C1 C 0.4681(13) 0.5869(16) 0.086(2) 0.072(5) Uani 1 1 d . A .
H1 H 0.4867 0.5349 -0.0152 0.086 Uiso 1 1 calc R . .
F1 F 0.2993(11) 0.6162(15) 0.6111(17) 0.097(10) Uani 0.743(9) 1 d P A 1
F2 F 0.494(3) 0.859(4) 0.145(4) 0.097(10) Uani 0.257(9) 1 d P A 2
loop_
_atom_site_aniso_label
_atom_site_aniso_U_11
_atom_site_aniso_U_22
_atom_site_aniso_U_33
_atom_site_aniso_U_23
_atom_site_aniso_U_13
_atom_site_aniso_U_12
C4 0.078(2) 0.062(17) 0.077(3) -0.001(4) -0.020(3) 0.007(5)
C3 0.078(2) 0.062(17) 0.077(3) -0.001(4) -0.020(3) 0.007(5)
C8 0.078(2) 0.062(17) 0.077(3) -0.001(4) -0.020(3) 0.007(5)
C7 0.078(2) 0.062(17) 0.077(3) -0.001(4) -0.020(3) 0.007(5)
C6 0.078(2) 0.062(17) 0.077(3) -0.001(4) -0.020(3) 0.007(5)
C5 0.078(2) 0.062(17) 0.077(3) -0.001(4) -0.020(3) 0.007(5)
C2 0.078(2) 0.062(17) 0.077(3) -0.001(4) -0.020(3) 0.007(5)
C1 0.078(2) 0.062(17) 0.077(3) -0.001(4) -0.020(3) 0.007(5)
F1 0.107(7) 0.11(3) 0.068(6) 0.007(11) 0.016(5) 0.015(9)
F2 0.107(7) 0.11(3) 0.068(6) 0.007(11) 0.016(5) 0.015(9)
loop_
_atom_type_symbol
_atom_type_description
_atom_type_scat_dispersion_real
_atom_type_scat_dispersion_imag
_atom_type_scat_source
C C 0.0015 0.0009 'International Tables Vol C Tables 4.2.6.8 and 6.1.1.4'
H H 0.0000 0.0000 'International Tables Vol C Tables 4.2.6.8 and 6.1.1.4'
F F 0.0096 0.0061 'International Tables Vol C Tables 4.2.6.8 and 6.1.1.4'
loop_
_geom_angle_atom_site_label_1
_geom_angle_atom_site_label_2
_geom_angle_atom_site_label_3
_geom_angle
C3 C4 C5 120.0
F1 C4 C3 121.3(12)
F1 C4 C5 118.7(12)
C4 C3 C2 119.3(14)
C8 C3 C4 120.0
C8 C3 C2 120.7(14)
C3 C8 C7 120.0
F2 C8 C3 121(3)
F2 C8 C7 119(3)
C6 C7 C8 120.0
C5 C6 C7 120.0
C6 C5 C4 120.0
C1 C2 C3 175.8(15)
loop_
_geom_bond_atom_site_label_1
_geom_bond_atom_site_label_2
_geom_bond_distance
C4 C3 1.3900
C4 C5 1.3900
C4 F1 1.22(2)
C3 C8 1.3900
C3 C2 1.440(19)
C8 C7 1.3900
C8 F2 1.20(3)
C7 C6 1.3900
C6 C5 1.3900
C2 C1 1.17(3)
loop_
_refln_index_h
_refln_index_k
_refln_index_l
_refln_F_squared_meas
_refln_F_squared_sigma
0 0 -1 -0.52 0.14
0 0 1 -0.37 0.19
0 0 1 -0.27 0.06
0 0 -1 -0.38 0.05
0 0 1 -0.39 0.05
0 0 -1 -0.37 0.06
0 0 -1 -0.07 0.18
0 0 1 -0.21 0.18
0 0 -1 -0.17 0.14
0 0 2 225.62 6.73
0 0 2 237.39 10.01
0 0 -2 232.43 6.51
0 0 -2 244.37 8
0 0 -2 228.91 9.29
0 0 -2 217.64 7.68
0 0 2 252.74 7.68
0 0 -2 238.97 9.1
0 0 -2 223.38 9.18
0 0 2 236.63 9.32
0 0 -2 241.65 9.95
0 0 2 225.51 9.23
0 0 -2 242.14 6.72
0 0 2 249.36 6.52
0 0 -3 1.52 0.36
0 0 3 -0.07 0.25
0 0 -3 -0.81 0.44
0 0 3 0.18 0.39
0 0 -4 18.78 1.15
0 0 4 18.09 1.8
0 0 4 17.16 1.34
0 0 4 18.49 2.02
0 0 -4 20.79 1.63
0 0 -4 13.74 1.47
0 0 -4 18.82 1.15
0 0 -4 16.83 1.08
0 0 -5 -1.72 2.11
0 0 -5 -1.96 1.96
0 0 5 -0.49 1.26
0 0 -5 -0.73 0.93
0 0 -5 -2.22 0.86
0 0 5 2.21 2.27
0 0 5 4.57 1.92
0 0 -5 1.72 1.19
-1 0 0 0.47 0.16
-1 0 0 0.11 0.18
-1 0 0 0.04 0.06
-1 0 0 0.02 0.05
-1 0 0 0.21 0.1
-1 0 0 0.13 0.08
1 0 0 -0.01 0.07
1 0 0 0.35 0.09
1 0 0 0.09 0.19
1 0 0 0.07 0.17
1 0 0 -0.01 0.05
1 0 0 0.02 0.05
-1 0 1 0.12 0.12
-1 0 1 0.53 0.2
-1 0 1 -0.11 0.1
-1 0 1 -0.08 0.11
-1 0 1 -0.09 0.33
-1 0 1 -0.06 0.24
-1 0 1 -0.19 0.16
-1 0 1 0 0.28
1 0 -1 -0.02 0.26
1 0 -1 0.05 0.29
1 0 -1 -0.14 0.09
1 0 -1 0.28 0.35
1 0 -1 -0.1 0.19
1 0 -1 0.05 0.11
1 0 -1 0.1 0.16
1 0 -1 0.08 0.17
-1 0 2 0.3 0.3
-1 0 2 -0.01 0.17
-1 0 2 -0.15 0.21
-1 0 -2 0.04 0.14
-1 0 2 -0.12 0.52
-1 0 2 -0.44 0.63
-1 0 2 -0.31 0.51
1 0 -2 -0.03 0.19
1 0 -2 0.08 0.33
1 0 2 -0.13 0.18
1 0 -2 0.51 0.67
1 0 -2 0.07 0.36
1 0 -2 0.17 0.3
1 0 -2 0.36 0.48
1 0 -2 -0.16 0.19
1 0 -2 0.14 0.55
-1 0 -3 0.18 0.31
-1 0 3 0.46 0.33
-1 0 3 -0.33 0.46
1 0 -3 0.27 0.36
1 0 -3 -1.06 0.98
1 0 -3 0.01 0.49
1 0 -3 0.75 0.84
1 0 -3 0.06 0.65
-1 0 -4 -0.6 1.1
-1 0 4 -0.62 1.58
-1 0 -4 1.12 0.81
-1 0 -4 0.26 0.48
-1 0 -4 -0.14 0.48
-1 0 4 0.25 1.52
1 0 -4 0.13 0.66
1 0 -4 0.39 0.61
1 0 -4 0.47 1.07
1 0 -4 -0.64 1.17
1 0 4 -0.45 0.66
1 0 -4 0.15 0.65
-1 0 -5 -0.74 1.13
-1 0 -5 4.77 1.84
-1 0 -5 -1.48 1.62
1 0 -5 -1.95 1.16
1 0 -5 2.06 2.11
1 0 -5 -2.62 1.96
-2 0 0 2.72 0.25
-2 0 0 2.55 0.32
-2 0 0 3.03 0.29
-2 0 0 2.81 0.36
-2 0 0 4.12 0.61
-2 0 0 4.4 0.61
-2 0 0 3.12 0.49
2 0 0 2.7 0.26
2 0 0 2.59 0.38
2 0 0 3.02 0.54
2 0 0 3.11 0.27
2 0 0 3.07 0.35
2 0 0 2.55 0.34
2 0 0 1.8 0.53
-2 0 -1 338.57 15.03
-2 0 1 377.7 11.64
-2 0 -1 365.28 14.1
-2 0 1 370.36 14.09
-2 0 1 347.49 13.95
-2 0 1 359.88 12.09
-2 0 1 373.85 9.86
-2 0 -1 337.74 12.08
-2 0 -1 358.19 11.86
-2 0 1 369.54 15.07
-2 0 -1 355 14.03
-2 0 -1 341.78 10.27
-2 0 1 360.8 10.19
2 0 1 323.08 11.85
2 0 -1 368.97 12.11
2 0 1 373.43 10.44
2 0 1 351.36 10.02
2 0 -1 359.84 13.98
2 0 1 356.28 14.04
2 0 -1 360.36 9.84
2 0 -1 362.78 10.17
2 0 -1 350.43 11.61
2 0 -1 364.95 15.07
2 0 -1 357.04 13.78
2 0 1 361.57 12.14
2 0 -1 349.13 14.06
-2 0 2 38.91 1.43
-2 0 2 37.5 2.14
-2 0 2 39.5 1.48
-2 0 2 39.22 2.36
-2 0 2 41.34 1.74
2 0 -2 38.08 1.99
2 0 -2 39.44 2.28
2 0 -2 39.28 1.79
2 0 -2 39.38 2.23
2 0 -2 41.71 1.45
2 0 -2 39.19 1.72
2 0 -2 40.27 2.17
2 0 -2 43.9 1.5
-2 0 3 12.91 0.85
2 0 -3 18.18 1.27
2 0 -3 15.51 1.34
-2 0 4 0.29 2.2
-2 0 4 -0.29 0.49
-2 0 -4 1.33 0.61
2 0 -4 0.36 1.3
2 0 -4 1.24 0.92
2 0 -4 -2.94 1.4
2 0 -4 -1.64 1.76
-2 0 -5 0.24 0.95
2 0 -5 3.06 1.54
2 0 -5 2.11 2.17
2 0 -5 4.18 2.39
-3 0 0 0.24 0.49
-3 0 0 0.05 0.21
-3 0 0 0.17 0.62
-3 0 0 0.05 0.31
-3 0 0 0.12 0.35
-3 0 0 -0.02 0.26
3 0 0 -0.32 0.45
3 0 0 -0.55 0.78
3 0 0 -0.16 0.78
3 0 0 0.08 0.42
3 0 0 0.37 0.39
3 0 0 -0.25 0.25
3 0 0 -0.02 0.23
-3 0 1 0.26 0.38
-3 0 -1 0.59 0.56
-3 0 -1 -0.12 0.29
-3 0 -1 -0.06 0.27
-3 0 -1 -0.16 0.2
-3 0 1 0.07 0.73
-3 0 1 -0.1 0.32
-3 0 -1 0.24 0.48
-3 0 -1 -0.14 0.27
-3 0 1 0.06 0.44
-3 0 1 0.14 0.27
3 0 -1 0.5 0.96
3 0 1 -0.32 0.53
3 0 -1 0.18 0.44
3 0 -1 0.11 0.29
3 0 -1 0.19 0.49
3 0 -1 -0.11 0.31
3 0 1 -0.45 0.27
3 0 1 -0.33 0.49
3 0 -1 0.07 0.53
3 0 -1 0.33 0.75
3 0 1 -0.17 0.32
-3 0 -2 -0.29 0.51
-3 0 2 -0.28 0.32
-3 0 2 0.19 0.93
3 0 -2 -1.03 1.33
3 0 -2 -0.18 0.58
3 0 -2 0.83 0.71
3 0 -2 -0.2 0.94
-3 0 3 -0.11 0.46
-3 0 3 -0.74 1.85
-3 0 3 0.51 0.67
3 0 -3 0.05 0.91
3 0 -3 0.33 0.76
3 0 -3 0.44 1.24
3 0 -3 0.3 0.97
3 0 -3 0.02 1.51
-3 0 4 0.04 0.57
-3 0 4 0.06 2.36
3 0 -4 -0.32 0.95
3 0 -4 -0.14 1.37
3 0 -4 1.78 1.68
3 0 -4 0.17 2.22
-4 0 0 0.99 0.37
-4 0 0 0.24 0.98
-4 0 0 1.11 0.55
4 0 0 -1.21 1.02
4 0 0 0.63 0.4
4 0 0 -0.36 0.75
-4 0 1 236.77 10.96
-4 0 -1 282.49 10.79
-4 0 1 273 7.74
4 0 -1 282.14 9.59
4 0 -1 270.31 11.08
4 0 -1 270.45 10.75
-4 0 -2 41.83 1.77
-4 0 2 42.2 1.77
-4 0 2 40.34 1.82
-4 0 -2 42.69 2.31
-4 0 -2 39.64 1.85
-4 0 2 44.63 3.09
-4 0 -2 43.6 2.17
-4 0 2 39.11 2.71
4 0 2 41.99 1.54
4 0 -2 41.23 2.24
4 0 -2 42.59 2.43
4 0 -2 42.15 2.24
4 0 2 42.96 1.55
4 0 -2 44.32 3.17
4 0 2 41.17 2.16
4 0 -2 41.12 2.95
-4 0 3 6.68 0.83
-4 0 3 9.14 2.74
-4 0 -3 8.64 1.42
-4 0 3 8.72 1.2
4 0 -3 6.48 1.38
4 0 -3 2.16 1.74
4 0 -3 10.85 1.61
4 0 -3 11.29 1.83
4 0 -3 7.06 2.12
-4 0 4 5.49 3.24
4 0 -4 2.49 1.58
4 0 -4 7.74 2.85
4 0 -4 1.39 2.04
-5 0 0 -0.24 1.2
-5 0 0 -0.04 0.8
-5 0 0 2.12 1.15
-5 0 0 0.6 0.46
5 0 0 -0.55 1.59
5 0 0 -0.6 1.1
5 0 0 -0.05 1.02
5 0 0 0.47 1.09
-5 0 1 2.76 1.5
-5 0 -1 0.68 1.16
-5 0 1 -0.19 1.35
-5 0 1 0.23 0.49
-5 0 -1 1.71 1.08
-5 0 -1 -0.2 1.87
-5 0 1 -0.34 0.76
5 0 -1 -0.35 1.52
5 0 1 -0.35 0.66
5 0 1 -0.73 1.83
5 0 -1 -0.51 1.14
5 0 1 0.05 0.96
5 0 1 -0.22 1.14
5 0 -1 0.15 1.9
5 0 -1 0.18 1.11
5 0 -1 0.34 1.31
-5 0 2 0.41 2.05
-5 0 -2 0.02 0.96
-5 0 2 2 1.8
-5 0 2 -1.07 0.82
-5 0 2 -0.9 0.52
-5 0 -2 1.03 1.77
-5 0 -2 0.1 1.78
-5 0 -2 -0.08 1.24
5 0 -2 -1.23 2.19
5 0 -2 0.66 1.77
5 0 -2 0.78 1.33
5 0 2 0.81 1
5 0 2 -0.09 0.7
5 0 -2 0.49 1.38
5 0 2 -0.13 1.55
5 0 -2 -0.4 1.37
5 0 2 -0.46 0.74
-5 0 -3 5.87 1.92
-5 0 3 2.5 1.26
-5 0 3 0.13 0.67
-5 0 3 6.67 3.34
5 0 -3 1.13 2.56
5 0 -3 -1.67 2.71
5 0 -3 -2.7 1.66
5 0 -3 -1.98 1.78
5 0 -3 5.03 1.77
-6 0 -1 5.54 2.55
-6 0 1 5.36 2.56
-6 0 1 6.21 2.95
6 0 -1 4.06 1.75
6 0 -1 -0.01 1.67
6 0 -1 11.4 2.36
6 0 1 1.87 1.79
6 0 -1 1.34 2.66
-6 0 2 15.67 1.72
-6 0 -2 17.9 2.84
-6 0 2 12.23 3.39
6 0 -2 16.05 2.34
6 0 -2 17.76 2.2
6 0 2 19.92 1.54
6 0 -2 16.72 2.36
6 0 -2 16.72 3.42
6 0 2 16 2.15
0 -1 5 2.15 0.63
0 1 -5 2.14 0.74
0 -1 5 3.36 0.91
0 1 -5 0.75 1.33
0 1 -5 3.08 0.86
0 1 -5 -1.09 1.38
0 1 -4 0.24 0.68
0 -1 4 0.03 0.6
0 1 -4 0.15 0.69
0 -1 4 -1.45 1.41
0 1 -4 -0.02 0.97
0 -1 4 0.18 0.36
0 1 -4 0.28 0.41
0 1 -4 1.62 1.19
0 1 -4 0.65 0.57
0 -1 3 26.43 0.99
0 -1 3 25.69 1.56
0 -1 3 26.68 1.21
0 1 -3 25.75 1.02
0 1 -3 24.84 1.59
0 -1 2 -0.15 0.23
0 1 -2 -0.68 0.63
0 -1 2 -0.02 0.57
0 1 -2 0.38 0.65
0 1 1 366.33 12.64
0 -1 -1 363.49 12.75
0 1 1 364.28 10.85
0 1 1 384.77 14.91
0 -1 -1 359.96 12.3
0 1 1 372.69 15.97
0 -1 -2 -0.29 0.57
0 -1 -2 -0.13 0.23
0 1 2 0.29 0.19
0 -1 -2 -0.01 0.25
0 1 2 0.05 0.36
0 -1 -2 0.65 0.63
0 1 2 0.59 0.22
0 -1 -2 -0.28 0.53
0 1 2 0.44 0.34
0 -1 -2 -0.1 0.16
0 -1 -2 0.59 0.35
0 1 2 -0.2 0.5
0 -1 -3 25.19 0.94
0 1 3 23.74 0.96
0 -1 -3 24.16 1.14
0 1 3 24.69 1.55
0 1 3 24.43 1.32
0 -1 -4 0.2 0.93
0 -1 -4 -0.15 0.77
0 1 4 -0.33 0.8
0 -1 -4 0.24 0.52
0 1 4 0.45 1.22
0 -1 -4 0.07 0.62
0 -1 -4 -0.1 1.37
0 1 4 1.21 1.1
0 -1 -4 -0.03 1.56
0 -1 -4 0.06 0.8
0 1 4 0.14 0.41
0 -1 -5 -0.71 1.29
0 -1 -5 -0.24 0.95
-1 1 -5 4.4 0.83
-1 1 -5 9.02 1.91
-1 1 -5 4.87 1.29
-1 -1 5 4.5 0.78
1 1 -5 4.17 1.04
1 1 -5 1.24 1.64
1 1 -5 4.62 1.48
1 1 -5 1.74 1.97
-1 1 -4 2.98 1.16
-1 1 -4 4.83 0.8
-1 -1 4 5.09 1.89
-1 -1 4 3.73 0.57
-1 1 -4 3.45 0.43
-1 -1 4 3.42 1.76
-1 1 -4 2.99 1.13
1 1 -4 4.04 0.81
1 1 -4 4.16 1.47
1 -1 4 4.02 0.42
1 1 -4 3.88 1
1 1 -4 3.97 0.86
1 -1 4 4.1 0.59
1 1 -4 3.89 1.24
-1 -1 3 27.22 1.7
-1 -1 3 25 1.07
-1 -1 3 26.86 1.34
1 1 -3 27.8 1.15
1 1 -3 22.66 1.5
1 1 -3 25.16 1.81
-1 -1 2 43.91 2.3
-1 -1 2 45.13 1.51
-1 -1 2 42.98 2.48
-1 -1 2 43.47 2.22
-1 -1 2 45.41 1.81
1 1 -2 44.64 1.55
1 1 -2 42.83 2.22
1 1 -2 44.46 2.52
1 1 -2 42.27 1.53
-1 -1 1 6.74 0.76
-1 -1 1 7.01 0.78
-1 -1 1 7.24 0.44
1 1 -1 6.86 0.77
1 1 -1 6.52 0.43
1 1 -1 7.72 0.84
-1 1 0 0.29 0.15
-1 1 0 0.37 0.26
-1 1 0 0.47 0.26
-1 1 0 0.2 0.12
-1 1 0 0.44 0.21
1 -1 0 0.27 0.11
1 1 0 0.39 0.29
1 -1 0 0.35 0.21
1 -1 0 0.16 0.25
1 -1 0 0.44 0.25
1 -1 0 0.37 0.17
-1 1 1 7.5 0.68
-1 1 1 6.15 0.5
-1 1 1 7.38 0.54
-1 1 1 6.79 0.42
-1 1 1 6.71 0.76
-1 1 1 6.37 0.61
1 -1 -1 6.26 0.87
1 -1 -1 6.87 0.61
1 -1 -1 6.82 0.7
1 -1 -1 6.6 0.54
1 -1 -1 6.64 0.52
1 -1 -1 6.73 0.41
-1 1 2 42.36 2.16
-1 1 2 45.88 1.77
-1 1 2 43.29 2.22
-1 -1 -2 43.93 1.57
-1 1 2 44.25 1.8
-1 1 2 43.52 2.03
-1 1 2 44.3 2.25
-1 -1 -2 39.31 1.69
-1 1 2 43.18 1.49
1 1 2 45.43 1.86
1 -1 -2 43.59 2.35
1 -1 -2 46.29 1.55
1 -1 -2 45.36 1.86
1 -1 -2 42.6 1.72
1 1 2 43.06 1.35
1 -1 -2 40.07 2.08
1 -1 -2 44.15 1.46
1 -1 -2 42.53 2.21
-1 -1 -3 24.35 0.84
-1 1 3 23.69 1.05
-1 -1 -3 24.05 1.01
-1 1 3 25.62 1.48
-1 1 3 26.23 1.81
1 -1 -3 25.83 1.05
1 1 3 24.8 1.34
1 -1 -3 26.26 1.28
1 1 3 24.69 0.86
1 1 3 24.94 1.17
1 -1 -3 25.13 1.67
-1 1 4 3.64 0.6
-1 1 4 5.61 1.44
-1 -1 -4 2.24 0.52
-1 -1 -4 5.2 0.95
-1 -1 -4 0.86 1.8
-1 1 4 3.2 1.64
-1 -1 -4 3.15 0.9
1 -1 -4 2.87 1.04
1 -1 -4 4.87 1.64
1 -1 -4 5.46 1.3
1 -1 -4 3.43 1.71
1 -1 -4 3.35 0.61
1 -1 -4 3.85 0.88
1 1 4 2.03 1.27
-1 1 5 5.42 1.13
-1 -1 -5 6.07 1.51
-1 -1 -5 10.19 2.62
1 -1 -5 12.12 2.93
1 -1 -5 5.84 2.54
1 -1 -5 4.32 1.57
1 -1 -5 10.62 1.86
-2 1 -5 -0.26 0.56
-2 -1 5 -0.47 0.71
2 1 -5 0.36 1.11
2 1 -5 -1.36 1.69
2 1 -5 -0.65 2
2 1 -5 -0.85 1.38
-2 -1 4 4.31 0.7
-2 -1 4 3.43 1.64
2 1 -4 2.28 1.54
2 1 -4 4.71 1.31
2 1 -4 4.59 1.03
2 1 -4 4.46 1.81
-2 -1 3 10.73 1.78
-2 -1 3 9.21 0.71
2 1 -3 8.58 1.73
2 1 -3 9.62 1.08
-2 -1 2 7.66 0.57
-2 1 -2 7.55 0.39
-2 1 -2 7.38 0.6
-2 -1 2 8.23 0.71
2 1 -2 7.39 0.81
2 1 -2 7.35 1.24
2 1 -2 6.91 0.72
2 -1 2 7.69 0.5
2 1 -2 8.02 0.61
2 1 -2 6.77 0.75
-2 1 -1 524.3 17.86
-2 -1 1 583.7 17.2
-2 -1 1 541.51 14.8
-2 -1 1 552.65 20.78
-2 1 -1 496.55 15.34
-2 1 -1 536.2 22.45
-2 -1 1 534.72 22.2
-2 1 -1 529.72 17.48
-2 1 -1 527.06 20.77
2 1 -1 498 22.21
2 -1 1 539.44 20.84
2 1 -1 500.18 14.51
2 1 -1 514.22 20.8
2 -1 1 563.2 21.01
2 -1 1 533.07 15.41
2 1 -1 537.97 15.04
2 -1 1 503.35 17.57
-2 1 0 993.32 37.06
-2 1 0 1000 37.24
-2 -1 0 917.22 39.95
-2 -1 0 902.3 26.2
-2 -1 0 887.62 36.68
-2 1 0 933.23 40.14
-2 -1 0 947.44 34.41
-2 1 0 957.25 27.11
-2 1 0 962.08 32.44
-2 1 0 959.47 30.66
2 -1 0 941.2 36.84
2 -1 0 913.39 26.68
2 -1 0 950.33 37.96
2 1 0 967.56 25.99
2 1 0 936.35 29.71
2 1 0 916.03 36.95
2 1 0 888.64 44.74
2 -1 0 895.46 45.48
2 -1 0 886.63 30.65
2 -1 0 872.27 36.33
-2 1 1 514.52 19.95
-2 1 1 542.19 16.91
-2 -1 -1 530.05 14.5
-2 1 1 533.94 14.93
-2 1 1 501.3 19.76
-2 1 1 492.54 21.33
-2 -1 -1 515.18 21.94
-2 1 1 502.8 19.52
2 -1 -1 492.81 17.17
2 1 1 501.59 21.92
2 -1 -1 481.34 21.35
2 -1 -1 515.34 19.76
2 -1 -1 503.6 13.95
2 1 1 509.87 17.61
2 1 1 519.52 20.47
2 -1 -1 510.96 20.11
2 -1 -1 499.22 16.75
2 -1 -1 516.45 14.78
-2 1 2 7.47 0.9
-2 1 2 7.17 0.69
-2 1 2 8.35 1.05
-2 1 2 6.77 0.57
-2 1 2 10.87 1.43
-2 1 2 7.54 0.82
-2 -1 -2 7.39 0.37
2 -1 -2 7.52 0.73
2 -1 -2 7.62 0.97
2 -1 -2 6.93 0.86
2 -1 -2 6.87 0.96
2 -1 -2 7.36 0.69
2 -1 -2 7.55 0.56
-2 1 3 9.35 1.15
-2 1 3 9.37 0.76
-2 1 3 14.79 1.94
2 -1 -3 9.38 1
2 -1 -3 8.24 1.62
2 -1 -3 10.44 0.77
-2 1 4 6.56 2.24
-2 1 4 3.34 0.73
2 -1 -4 5.95 1.34
2 -1 -4 1.83 1.08
2 -1 -4 3.34 2.06
2 -1 -4 3.51 1.75
2 -1 -4 5.56 2.09
-2 1 5 -1.19 1.1
-2 -1 -5 0.61 1.12
2 -1 -5 0.06 2.48
2 -1 -5 0.55 1.61
2 -1 -5 0.14 1.49
2 -1 -5 2.5 2.51
-3 -1 4 3.95 1.7
-3 -1 4 3.4 0.71
3 1 -4 3.79 1.97
3 1 -4 4.2 1.09
3 1 -4 3.92 1.68
3 1 -4 3.27 1.35
-3 1 -3 1.65 0.6
-3 -1 3 1.62 1.33
-3 -1 3 1.17 0.54
3 1 -3 2.99 1.66
3 1 -3 1.72 1.31
3 1 -3 2.33 0.81
3 1 -3 1.97 1.02
-3 -1 2 -0.25 0.33
-3 1 -2 -0.14 0.22
-3 1 -2 0.26 0.39
-3 1 -2 0.14 0.65
-3 -1 2 0.41 1.04
3 1 -2 0.73 0.58
3 1 -2 -1.34 1.32
3 1 -2 0.94 0.94
3 -1 2 -0.17 0.31
3 -1 2 0.02 0.21
3 1 -2 0.22 0.65
-3 1 -1 46.59 2.21
-3 1 -1 46.19 2.09
-3 -1 1 44.06 1.62
-3 -1 1 48.13 1.94
-3 1 -1 42.72 1.51
3 1 -1 45.62 2.32
3 1 -1 43.12 2.03
3 1 -1 47.31 1.69
3 -1 1 43.19 1.74
3 1 -1 45.46 2.53
3 -1 1 46.12 1.48
-3 -1 0 13.85 1.41
-3 1 0 14.18 1.01
-3 -1 0 15.25 0.9
-3 1 0 15.3 0.98
-3 -1 0 14.02 0.71
-3 1 0 14.99 1.29
-3 1 0 15.06 1.01
-3 1 0 13.74 1.3
-3 1 0 14.78 1.32
-3 1 0 13.66 0.72
3 -1 0 14.3 1.14
3 1 0 14.1 1.3
3 -1 0 13.22 1.16
3 -1 0 12.94 0.88
3 -1 0 12.75 1.89
3 -1 0 14.29 1.07
3 1 0 15.41 0.74
3 -1 0 14.35 0.78
3 1 0 13.86 0.88
3 -1 0 13.5 0.69
3 1 0 14.12 0.8
3 1 0 14.19 1.21
-3 -1 -1 44.67 1.71
-3 1 1 41.86 2.24
-3 1 1 46.85 2.04
-3 1 1 45.58 2.56
-3 1 1 42.58 1.64
-3 1 1 44.02 2.49
-3 -1 -1 43.15 1.45
3 1 1 45.27 1.49
3 -1 -1 45.26 1.59
3 -1 -1 43.44 1.88
3 1 1 44.64 2.24
3 1 1 45.27 1.79
3 1 1 44.27 2.17
3 -1 -1 43.05 2.38
-3 1 2 0.42 0.71
-3 -1 -2 -0.06 0.29
-3 1 2 0.53 0.49
-3 1 2 0.97 0.87
-3 1 2 0.05 0.4
-3 -1 -2 0.06 0.19
3 1 2 -0.81 0.61
3 -1 -2 0.27 0.32
3 1 2 0.21 0.22
3 -1 -2 0.69 0.59
3 -1 -2 0.88 0.95
3 1 2 -0.06 0.35
-3 1 3 1.5 0.64
-3 1 3 1.67 1.83
3 -1 -3 0.93 1.29
3 -1 -3 1.72 1.07
3 -1 -3 1.87 0.81
3 -1 -3 2.05 1.64
3 -1 -3 2.36 1.42
-3 1 4 3.75 0.8
-3 1 4 2.99 2.26
3 -1 -4 1.68 1.44
3 -1 -4 5.38 2.07
3 -1 -4 2.99 2.02
3 -1 -4 3.48 2.15
3 -1 -4 2.8 1.22
-4 -1 4 -0.54 0.74
-4 -1 4 -0.07 1.97
4 1 -4 0.21 1.27
4 1 -4 0.45 2.07
4 1 -4 -0.16 1.44
-4 -1 3 -1.38 1.63
-4 -1 3 0.81 0.57
-4 1 -3 -0.07 1.19
-4 1 -3 1.04 0.58
4 1 -3 0.78 1.22
4 1 -3 -1.91 1.54
4 1 -3 -0.17 1.89
4 -1 3 1.13 0.47
4 1 -3 0.67 0.93
-4 -1 2 41.91 3.22
-4 -1 2 38.05 1.69
-4 1 -2 36.56 2.31
-4 1 -2 39.2 1.75
-4 1 -2 39.43 2.29
-4 1 -2 43.5 2.15
-4 1 -2 40.32 1.82
-4 1 -2 38.82 1.43
-4 -1 2 39.78 2.7
4 1 -2 41.18 2.81
4 -1 2 38.41 1.44
4 -1 2 38.6 1.63
4 -1 2 38.68 2.05
4 -1 2 40.01 1.38
4 1 -2 38.57 2.81
4 1 -2 41.66 2.18
4 1 -2 38.04 2.36
-4 1 -1 30.39 1.28
-4 1 -1 33.08 2.38
-4 1 -1 35.27 1.72
-4 1 -1 31.71 2.03
-4 1 -1 33.3 1.83
-4 -1 1 27.5 2.47
-4 -1 1 31.21 1.37
4 1 -1 30.77 1.95
4 -1 1 32.67 1.22
4 -1 1 30.05 1.47
4 1 -1 32.39 1.81
4 1 -1 28.52 2.32
-4 1 0 -1.44 0.92
-4 1 0 0.58 0.58
-4 1 0 0.62 0.4
-4 1 0 0.49 1.17
-4 1 0 1.1 0.73
-4 -1 0 1.07 0.58
-4 -1 0 0.61 0.38
4 -1 0 0.83 0.55
4 1 0 0.7 0.56
4 1 0 1.07 0.45
4 -1 0 0.53 0.35
4 1 0 0.94 0.69
4 1 0 1.53 1.38
-4 -1 -1 29.83 1.19
-4 1 1 27.64 1.72
-4 -1 -1 31.88 1.5
-4 1 1 32.9 1.47
-4 1 1 24.23 2.39
4 1 1 28.31 2.01
4 -1 -1 33.19 1.36
4 1 1 32.8 1.24
4 -1 -1 31.26 1.66
4 1 1 30.34 1.67
-4 1 2 35.74 2.82
-4 -1 -2 38.34 2.5
-4 -1 -2 39.32 1.59
-4 1 2 38.22 2.08
-4 -1 -2 37.15 2.25
-4 1 2 42.82 2.8
-4 1 2 37.5 1.7
-4 -1 -2 38.08 1.33
4 1 2 36.92 2.69
4 1 2 38.28 1.34
4 -1 -2 38.8 2.26
4 -1 -2 39.46 2.75
4 -1 -2 34.9 1.9
4 1 2 38.94 2.26
4 -1 -2 34.92 2.91
4 1 2 38.8 1.78
4 -1 -2 37.95 2.46
4 1 2 35.88 1.81
-4 -1 -3 -2.04 1.02
-4 -1 -3 2.01 0.59
-4 1 3 0.7 2.59
-4 1 3 0.14 0.65
4 -1 -3 1.48 2.12
4 -1 -3 1.75 1.46
4 -1 -3 0.58 1.88
4 -1 -3 0.26 2.12
4 -1 -3 0.85 1.03
4 1 3 1.64 0.45
-4 1 4 2.59 3.02
4 -1 -4 6.1 1.9
4 -1 -4 5.69 2.73
4 -1 -4 3.11 1.69
4 -1 -4 6.4 2.88
-5 -1 3 -0.65 1.83
-5 1 -3 0.38 1.02
-5 1 -3 -2.45 1.79
-5 -1 3 0.93 0.68
-5 1 -3 0.52 0.65
5 1 -3 -1.12 1.11
5 1 -3 -1.13 1.3
5 1 -3 1.64 1.95
5 1 -3 -4.27 1.94
-5 1 -2 3.96 1.85
-5 -1 2 6.9 2.04
-5 1 -2 7.08 1.1
-5 1 -2 9.13 1.74
-5 1 -2 6.02 0.73
-5 1 -2 7.1 1.34
-5 -1 2 5.07 2.34
-5 -1 2 5.95 0.83
-5 1 -2 7.05 0.92
5 -1 2 7.73 1.77
5 1 -2 7.54 1.32
5 1 -2 8.03 1.65
5 -1 2 6.45 0.81
5 1 -2 7.83 1.97
5 -1 2 5.78 1.19
5 -1 2 6.81 0.86
5 1 -2 5.74 2.18
-5 1 -1 1.38 1.98
-5 -1 1 0.87 1.91
-5 1 -1 0.95 1.06
-5 -1 1 0.67 0.54
-5 1 -1 0.67 0.66
-5 -1 1 -0.26 1.51
-5 1 -1 0.44 0.52
-5 1 -1 1.7 1.36
5 -1 1 -0.23 1.6
5 1 -1 -0.25 1.48
5 1 -1 0.44 1.38
5 1 -1 -0.17 0.96
5 1 -1 0.67 0.87
5 -1 1 0.2 0.73
5 -1 1 0.39 1.13
5 -1 1 0.89 0.51
-5 1 0 6.98 1.43
-5 1 0 2.19 1.98
-5 -1 0 4.45 0.67
-5 -1 0 4.82 1.84
-5 1 0 4.51 0.69
-5 1 0 4.87 0.93
-5 -1 0 6.23 1.66
5 -1 0 1.04 1.49
5 -1 0 3.75 2.17
5 1 0 2.45 1.38
5 -1 0 4.27 0.87
5 1 0 5.16 1.5
5 1 0 6.22 1.23
5 -1 0 4.37 1.22
5 1 0 4.78 0.98
-5 1 1 1.23 2.2
-5 1 1 0.98 0.6
-5 1 1 1.03 1.24
-5 -1 -1 0.4 0.44
-5 1 1 0.58 0.75
-5 -1 -1 0.98 1.97
-5 -1 -1 1.23 1.32
-5 -1 -1 2.27 1.69
5 1 1 1.02 0.77
5 -1 -1 1.51 1.21
5 -1 -1 1.2 1.56
5 1 1 1.02 0.87
5 1 1 1.6 0.97
5 1 1 -0.42 1.09
5 -1 -1 -0.63 2.09
5 -1 -1 0.32 0.75
5 1 1 -1.27 1.57
-5 1 2 7.62 1.82
-5 1 2 7.56 1.22
-5 1 2 6.32 0.91
-5 -1 -2 7.4 1.55
-5 1 2 4.69 2.65
-5 -1 -2 5.88 1.81
-5 -1 -2 7.46 0.86
5 1 2 6.44 1.13
5 1 2 5.34 1.97
5 1 2 8.43 0.86
5 1 2 6.42 0.86
5 -1 -2 8.02 2.59
5 -1 -2 7.19 1.24
5 1 2 7.56 1.14
5 -1 -2 6.54 1.56
-5 -1 -3 -0.03 1.16
-5 1 3 2.42 3.27
5 -1 -3 1.18 2.24
5 1 3 2.64 1.56
5 -1 -3 1.35 1.33
-6 -1 2 13.08 1.28
-6 1 -2 8.88 2.65
-6 -1 2 15.62 2.86
6 -1 2 11.51 1.23
6 -1 2 12.75 2.4
6 1 -2 15.56 2
6 1 -2 13.75 2.28
6 1 -2 16.59 3
-6 1 -1 5.27 2.7
-6 -1 1 7.29 2.29
-6 -1 1 7.3 0.94
-6 -1 1 9.77 2.97
-6 1 -1 5.21 0.97
6 1 -1 9.15 1.89
6 -1 1 0.69 2.16
6 1 -1 9.34 2.79
6 1 -1 1.97 1.67
6 1 -1 7.05 1.68
-6 1 0 3.52 2.83
-6 1 0 7.22 0.98
-6 -1 0 7.6 0.93
-6 -1 0 7.92 2.13
6 -1 0 5.92 1.38
6 -1 0 5.34 1.63
6 1 0 8.37 1.71
6 -1 0 4.47 2.98
6 1 0 9.12 1.62
6 1 0 6.57 2.53
-6 1 1 7.55 1.14
-6 1 1 8.83 2.08
-6 1 1 10.19 3.32
-6 -1 -1 6.25 0.86
-6 -1 -1 8.54 2.06
-6 1 1 9.15 1.41
6 1 1 7.79 1.68
6 -1 -1 5.59 3.21
6 -1 -1 3.32 1.52
6 -1 -1 5.06 1.74
6 -1 -1 5.71 2.18
-6 -1 -2 13.25 1.93
-6 1 2 13.17 1.42
-6 1 2 6.75 3.51
6 1 2 13.87 1.31
6 -1 -2 11.09 3.38
6 -1 -2 11.45 2.06
6 -1 -2 11.41 2.09
0 2 -5 -1.83 0.95
0 2 -5 -2.07 1.65
0 -2 5 -0.81 0.52
0 2 -4 0.76 1.27
0 2 -4 2.23 0.51
0 -2 4 0.68 0.44
0 -2 4 1.87 1.01
0 2 -4 0.77 1.64
0 -2 4 2.17 0.72
0 -2 -2 84.41 2.98
0 2 2 84.79 3.14
0 2 2 82.35 3.51
0 2 2 85.2 3.99
0 2 2 79.28 2.57
0 -2 -2 81.75 3.29
0 2 3 1.6 0.63
0 2 3 0.6 0.4
0 -2 -4 1.42 0.64
0 -2 -4 2.26 1.36
0 2 4 1.71 0.45
0 -2 -4 1.81 1.12
0 -2 -4 1.08 0.44
0 -2 -4 -0.85 1.6
0 2 4 1.22 0.87
0 -2 -4 1.88 0.61
0 2 4 1.38 1.34
0 2 4 2.45 0.81
0 -2 -5 1.4 2.04
0 -2 -5 2.23 1.7
0 2 5 0.11 1.5
0 2 5 -0.9 0.58
0 -2 -5 -1.14 0.62
0 -2 -5 0.67 0.86
0 -2 -5 -2.04 0.94
-1 2 -5 6.42 1.89
-1 2 -5 3.45 1
-1 -2 5 2.88 0.71
1 2 -5 1.82 1.04
1 2 -5 3.74 1.35
1 -2 5 2.59 0.55
1 2 -5 3.41 2.01
1 2 -5 -0.95 1.63
-1 2 -4 15.84 0.83
-1 -2 4 18 1.46
-1 -2 4 15.56 0.97
-1 2 -4 13.58 1.44
1 -2 4 15.7 1.3
1 -2 4 16.04 0.85
1 2 -4 17.01 2.42
1 -2 4 15.93 1.13
1 2 -4 15.34 1.84
-1 -2 2 55.57 1.93
1 2 -2 57.98 2.92
-1 2 1 78.59 2.77
-1 2 1 80.2 3.35
-1 2 1 77.37 3.07
-1 2 1 77.96 2.45
-1 2 1 80.48 3.36
1 -2 -1 71.29 3.09
1 -2 -1 78.43 2.82
1 -2 -1 80.13 2.42
1 -2 -1 75.87 3.31
-1 2 2 57.47 2.03
-1 2 2 59.89 2.8
-1 2 2 56.64 2.8
-1 2 2 58.19 2.31
-1 2 2 63.01 2.49
-1 2 2 62.34 3.15
1 -2 -2 53.11 2.52
1 -2 -2 53.22 2.33
1 -2 -2 58.85 2.75
1 -2 -2 58.45 2.91
1 2 2 58.68 2.24
1 -2 -2 62.34 2.02
-1 2 3 7.77 1.11
-1 2 3 5.32 0.62
-1 2 3 6.76 0.69
-1 2 3 3.57 1.61
-1 2 3 6.19 0.97
1 2 3 5.96 0.49
1 -2 -3 5.89 0.65
1 -2 -3 5.84 0.77
-1 -2 -4 15.78 0.96
-1 -2 -4 13.99 1.48
-1 2 4 12.45 1.98
-1 -2 -4 14.42 0.73
-1 2 4 15.14 0.97
-1 2 4 16.04 1.94
-1 -2 -4 13.71 1.81
-1 2 4 16.09 1.35
1 -2 -4 15.5 1.68
1 -2 -4 19.81 3.04
1 -2 -4 13.71 1.22
1 -2 -4 17.55 1.67
1 2 4 14.18 0.74
1 2 4 15.04 1.02
1 2 4 15.11 1.42
1 -2 -4 12.51 1.77
1 -2 -4 15.85 0.97
-1 -2 -5 5.18 1.25
-1 2 5 2.24 0.74
-1 -2 -5 2.53 1.39
1 -2 -5 2.82 1.71
1 -2 -5 2.84 1.11
1 -2 -5 2.63 2.52
1 -2 -5 6.65 3.5
1 2 5 2.01 0.72
-2 -2 5 4.38 0.84
2 2 -5 4.94 1.18
2 2 -5 6.82 1.6
2 2 -5 5.64 1.91
2 2 -5 7.62 2.42
-2 2 -4 0.28 0.38
-2 -2 4 0.38 1.41
-2 -2 4 0.81 0.51
2 2 -4 -0.22 1.01
2 2 -4 -0.24 0.8
2 2 -4 1.14 1.81
2 -2 4 2.18 0.66
2 2 -4 -1.01 1.45
-2 -2 1 35.82 1.42
-2 -2 1 38.35 2.19
2 -2 1 37.28 1.83
2 2 -1 35.41 2.37
2 2 -1 35.86 2.24
2 2 -1 37.18 1.42
-2 2 0 24.91 1.46
-2 2 0 24.22 1.02
-2 2 0 23.88 1.4
-2 2 0 21.54 1.33
-2 2 0 23.94 1.15
2 -2 0 25.41 1.38
2 -2 0 23.09 1.47
2 -2 0 23.13 1.17
2 -2 0 24.14 0.97
-2 2 1 36.32 2.43
-2 2 1 34.71 1.54
-2 2 1 35.26 2
-2 2 1 36.63 1.4
-2 2 1 36.21 1.98
-2 2 1 36.27 1.78
2 -2 -1 34.44 1.82
2 -2 -1 35.51 2.06
2 -2 -1 33.3 1.34
2 -2 -1 30.65 1.85
2 -2 -1 32.76 1.64
-2 2 2 10.96 2.14
-2 2 2 13.01 0.87
-2 2 2 11.09 1.06
-2 2 2 13.06 1.22
2 -2 -2 13.06 1
2 -2 -2 13.19 0.8
-2 2 3 11.01 1.2
-2 2 3 13.58 2.11
-2 2 3 11.22 0.84
2 -2 -3 11.79 0.93
2 -2 -3 13.34 1.84
2 -2 -3 10.45 1.11
-2 2 4 -1.5 1.96
-2 -2 -4 0.61 0.25
-2 -2 -4 -0.88 0.38
-2 2 4 0.57 0.56
2 -2 -4 -0.45 2.03
2 -2 -4 -0.66 1.35
2 -2 -4 -0.36 0.81
2 2 4 0.13 0.27
2 -2 -4 0.88 2.35
2 -2 -4 1.01 1.24
-2 -2 -5 6.64 1.26
-2 2 5 6.24 0.89
2 -2 -5 6.39 1.85
2 -2 -5 6.74 1.27
2 -2 -5 4.97 3.27
2 -2 -5 5.46 2.59
-3 -2 4 4.97 0.77
-3 -2 4 9.14 1.96
3 2 -4 7.34 1.54
3 2 -4 5.24 1.17
3 2 -4 5.5 1.81
3 2 -4 3.94 2.16
-3 2 -3 16.61 0.8
-3 2 -3 18.05 1.2
-3 -2 3 17.49 1.09
-3 -2 3 20.79 2.12
3 2 -3 16.75 1.55
3 2 -3 16.42 2.1
3 2 -3 19.31 2.27
3 2 -3 17.17 1.46
3 -2 3 18.38 0.98
3 -2 2 23.46 1.36
-3 2 0 1.35 0.48
-3 -2 0 1.11 0.45
-3 -2 0 2.32 1.07
-3 2 0 1.73 0.63
-3 2 0 0.62 1.36
-3 2 0 2.32 1.18
-3 2 0 1.2 1.02
-3 2 0 1.7 0.72
3 2 0 1.46 0.47
3 -2 0 1.18 0.61
3 -2 0 1.59 0.51
3 -2 0 1.31 0.79
-3 2 1 8.1 0.76
-3 2 1 12.51 2.31
-3 2 1 10.28 1.41
3 -2 -1 8.39 0.69
3 -2 -1 9.31 0.94
-3 2 2 24.41 1.67
-3 2 2 21.26 2.19
-3 2 2 22.16 1.18
-3 2 2 21.69 1.49
3 -2 -2 22.45 1.97
3 -2 -2 22.59 1.22
3 -2 -2 22.8 1.38
-3 2 3 16.94 2.25
-3 -2 -3 17.91 0.74
-3 2 3 18.6 1.17
3 -2 -3 15.59 1.41
3 -2 -3 17.26 1.87
3 -2 -3 18.75 1.95
3 -2 -3 17.33 2.52
3 -2 -3 16.53 1.64
-3 2 4 6.14 0.87
-3 2 4 3.4 2.29
3 -2 -4 6.39 1.63
3 -2 -4 6.78 2.42
3 -2 -4 6.42 1.16
3 -2 -4 8.23 1.94
3 -2 -4 6.37 2.66
-4 2 -4 4.75 1.08
-4 -2 4 5.05 2.29
-4 -2 4 4.73 0.89
4 2 -4 4.09 2.44
4 2 -4 0.9 2.24
4 2 -4 3.86 1.66
4 2 -4 4.92 1.44
-4 2 -3 1.98 0.7
-4 2 -3 0.75 0.97
-4 2 -3 1.75 0.4
-4 -2 3 0.62 0.57
-4 2 -3 -0.37 1.1
-4 -2 3 1.57 1.82
4 2 -3 0.51 1.67
4 2 -3 2.6 1.29
4 2 -3 1.65 1.04
4 -2 3 1.24 0.52
4 -2 3 1.49 0.36
4 2 -3 -1.58 1.82
-4 2 -2 4.79 1
-4 -2 2 3.41 1.82
-4 2 -2 3.09 1.84
-4 2 -2 4.05 1.42
-4 2 -2 3.28 0.96
-4 2 -2 3.23 0.49
-4 2 -2 1.75 1.35
-4 -2 2 4.04 0.65
-4 -2 2 4.49 1.97
4 2 -2 3.64 0.93
4 -2 2 4.01 0.47
4 -2 2 3.34 0.64
4 2 -2 2.11 1.64
4 2 -2 3.73 1.51
4 2 -2 3.72 1.2
-4 2 -1 21.69 1.52
-4 2 -1 17.78 1
-4 2 -1 22.72 2.32
4 -2 1 18.55 0.98
4 -2 1 18.18 1.2
-4 2 0 1.63 1.1
-4 2 0 1.7 0.51
4 -2 0 2.36 0.68
4 -2 0 1.91 0.47
-4 2 1 18.99 1.55
-4 2 1 17.88 1.1
-4 2 1 23.26 2.38
4 -2 -1 16.81 1.38
4 2 1 17.17 1.6
4 -2 -1 18.84 1.87
4 2 1 18.89 1.15
-4 -2 -2 3.72 0.67
-4 2 2 3.66 0.7
-4 2 2 4.37 0.94
-4 -2 -2 2.83 0.44
-4 2 2 4.3 1.94
-4 2 2 4.22 1.42
4 -2 -2 5.01 1.49
4 -2 -2 3.83 1.24
4 2 2 3.19 0.61
4 -2 -2 2.17 1.49
4 2 2 4.2 0.5
4 2 2 3.93 1.23
4 -2 -2 3.27 0.94
4 2 2 4.6 0.93
4 -2 -2 4.02 2.1
-4 -2 -3 1.33 0.32
-4 2 3 1.5 0.75
-4 2 3 -0.38 2.25
-4 -2 -3 1.23 0.48
4 -2 -3 2.46 2.08
4 -2 -3 1.98 1.36
4 2 3 1.45 0.56
4 -2 -3 2.8 1.73
4 -2 -3 1.29 2.37
4 -2 -3 1.15 0.86
4 2 3 1.54 0.35
-4 2 4 7.8 3.12
-4 2 4 3.72 0.98
4 -2 -4 4.47 2.82
4 -2 -4 7.74 3.23
4 -2 -4 3.11 1.31
4 -2 -4 6.2 1.92
-5 2 -3 -1.47 1.88
-5 -2 3 -0.42 0.68
-5 2 -3 0.05 0.5
-5 2 -3 1.43 1.22
-5 -2 3 0.58 2.11
5 2 -3 -0.64 2.14
5 -2 3 -0.61 0.72
5 2 -3 -0.1 1.21
5 2 -3 -0.13 1.44
-5 -2 2 7.29 2.23
-5 -2 2 4.01 0.73
-5 2 -2 3.09 0.62
-5 2 -2 3.86 1.76
-5 2 -2 6.7 1.17
-5 2 -2 2.14 1.79
-5 -2 2 3.24 2.22
-5 2 -2 4.26 1.17
-5 2 -2 6.67 1.69
5 2 -2 5.61 1.88
5 2 -2 3.96 1.22
5 -2 2 5.03 0.6
5 2 -2 0.86 1.99
5 2 -2 5.25 1.49
5 -2 2 4.03 0.82
-5 2 -1 5.39 1.15
-5 2 -1 6.77 1.87
-5 -2 1 1.45 2.27
-5 -2 1 5.14 0.73
-5 -2 1 5.49 2.21
-5 2 -1 6.35 1.32
-5 2 -1 1.76 1.68
-5 2 -1 6.07 0.75
5 2 -1 4.75 1.39
5 -2 1 4.59 1.5
5 2 -1 4.75 1.11
5 -2 1 5.74 1.92
5 -2 1 6.66 0.9
5 2 -1 2.87 1.94
5 2 -1 4.71 1.73
5 -2 1 6.47 0.7
-5 -2 0 3 2.49
-5 -2 0 3.01 0.63
-5 -2 0 4.93 1.84
-5 2 0 3.17 0.93
-5 2 0 1.68 1.96
-5 2 0 3.39 0.73
-5 2 0 4.84 1.49
5 2 0 2.37 1.8
5 -2 0 2.51 0.85
5 -2 0 2.45 1.73
5 2 0 4.53 1.39
5 2 0 4.56 1.18
5 2 0 3.29 0.86
5 -2 0 2.67 1.33
-5 -2 -1 6.11 2.05
-5 -2 -1 11.85 2.42
-5 -2 -1 5.45 0.65
-5 2 1 7.62 1.26
-5 2 1 5.11 0.84
-5 2 1 4.91 2.3
-5 2 1 9.02 1.86
5 -2 -1 9.99 2.87
5 2 1 7.26 1.29
5 2 1 3.33 0.99
5 -2 -1 6.71 1.64
5 -2 -1 5.31 1.07
5 2 1 6.7 0.96
5 2 1 3.18 1.4
5 -2 -1 9.5 2.02
5 2 1 4.09 1.78
-5 2 2 4.09 1.13
-5 2 2 1.94 2.3
-5 -2 -2 3.4 0.55
-5 2 2 4.18 0.82
-5 2 2 6.02 1.77
-5 -2 -2 4.51 0.83
5 2 2 3.85 1.03
5 -2 -2 5.04 1.14
5 2 2 2.33 1.62
5 -2 -2 2.19 1.86
5 2 2 4.21 0.6
5 -2 -2 4.09 2.68
5 -2 -2 4 1.48
5 2 2 5.21 1.03
5 2 2 1.85 1.28
-5 2 3 11.54 3.29
5 -2 -3 2.22 2.66
5 -2 -3 10.59 3.44
5 -2 -3 4.66 1.81
-6 2 -2 3.27 2.38
-6 2 -2 5.21 0.85
-6 -2 2 5.68 2.46
-6 -2 2 4.24 0.93
6 -2 2 6.45 0.82
6 2 -2 5.02 1.72
6 -2 2 7.85 1.97
6 2 -2 3.2 2.54
6 -2 2 5.52 1.05
6 2 -2 10.03 2.38
6 2 -2 6.58 1.58
-6 -2 1 -3.07 2.13
-6 2 -1 1.07 0.77
-6 2 -1 1.52 2.59
-6 -2 1 1.3 0.71
6 -2 1 6.65 2.47
6 2 -1 1.16 1.41
6 2 -1 1.63 1.22
6 2 -1 -3.14 1.85
6 -2 1 1.51 0.96
6 2 -1 3.44 2.23
-6 2 0 -2.33 2.64
-6 -2 0 1.1 0.7
-6 2 0 1.14 0.82
-6 -2 0 -1.97 2.32
6 2 0 1.61 1.29
6 2 0 1.8 0.99
6 -2 0 0.99 0.98
6 2 0 0.95 1.89
6 2 0 -1.43 1.63
6 -2 0 3.58 1.86
6 -2 0 -1.66 1.86
-6 2 1 9.09 2.94
-6 -2 -1 -2.98 2.24
-6 2 1 1.41 1.1
-6 2 1 0.6 1.88
-6 -2 -1 1.11 0.65
-6 2 1 0.99 0.91
6 2 1 0.54 1.16
6 -2 -1 2.64 1.83
6 2 1 -1.41 1.66
6 -2 -1 0.48 2
6 -2 -1 0.25 1.07
6 -2 -1 5.99 3.99
-6 -2 -2 9.92 2.22
-6 2 2 7.18 3.1
-6 -2 -2 5.26 0.76
-6 2 2 4.92 1.1
6 -2 -2 7.06 1.37
6 -2 -2 6.15 1.87
6 -2 -2 3.09 2.44
6 2 2 5.62 1.32
6 -2 -2 6.59 3.39
0 3 -5 16.33 2.23
0 -3 5 14.55 1.02
0 -3 4 -0.38 0.69
0 3 4 -1.56 1.02
0 -3 -4 -1.03 1.78
0 -3 -4 -1.33 1.32
0 3 4 -0.92 0.48
0 -3 -4 -0.51 0.63
0 -3 -4 0.44 0.46
0 3 5 12.06 1.38
0 3 5 16.09 2.32
0 3 5 13.98 1
0 -3 -5 12.03 1.27
0 -3 -5 17.67 2.31
0 -3 -5 13.76 1.05
-1 -3 5 6.14 0.82
1 -3 5 8.68 0.82
1 3 -5 7.43 2.23
1 3 -5 3.34 2.56
-1 -3 4 5.5 0.93
-1 -3 4 3.62 0.95
1 3 -4 6.74 2.15
-1 3 2 7.99 1.1
-1 3 2 7.93 0.97
-1 3 2 7.67 0.71
-1 3 2 8.32 1.65
1 -3 -2 6.51 1.13
1 -3 -2 8.01 0.96
-1 3 4 1.44 1.18
-1 -3 -4 3.83 0.91
-1 3 4 1.34 0.59
1 -3 -4 4.12 1.97
1 -3 -4 1.18 0.63
1 -3 -4 -1.52 1.48
1 3 4 1.16 1.36
1 -3 -4 1.33 0.87
1 -3 -4 3.17 2.38
1 3 4 2.24 0.63
-1 -3 -5 7.43 0.95
-1 3 5 7.83 0.91
1 -3 -5 4.53 1.16
1 -3 -5 10.35 2.48
1 -3 -5 5.54 1.97
1 3 5 6.05 0.71
-2 -3 5 1.67 0.72
2 3 -5 4.4 1.46
2 3 -5 2.76 1.87
2 3 -5 2.51 2.34
-2 -3 4 2.75 0.76
-2 -3 4 5.47 1.91
2 3 -4 0.95 1.97
-2 3 1 68.71 3.14
-2 3 1 61.46 2.9
-2 3 1 64.73 2.28
-2 3 1 67.89 2.55
-2 3 1 68.04 3.17
2 -3 -1 62.98 3.24
2 -3 -1 57.44 2.97
2 -3 -1 64.59 2.62
2 -3 -1 68.22 2.22
2 -3 -1 65.84 3.08
-2 3 3 24.48 2
-2 3 3 24.07 1.31
-2 3 3 23.32 2.2
2 -3 -3 22.05 2.59
2 -3 -3 21.73 1.96
2 -3 -3 25.17 1.58
2 -3 -3 20.72 1.92
-2 -3 -4 2.85 0.82
-2 3 4 2.14 1.98
-2 3 4 2.47 0.76
2 -3 -4 1.94 1.02
2 -3 -4 4.32 2.02
2 3 4 3.12 1.26
2 3 4 2.28 0.52
2 -3 -4 3.44 1.46
2 -3 -4 4.44 2.16
-2 3 5 2.48 0.78
2 -3 -5 3.34 1.12
2 -3 -5 3.87 2.47
2 -3 -5 2.55 1.9
-3 -3 4 6.37 0.9
-3 -3 4 9.16 2.2
3 3 -4 7.65 2.3
3 3 -4 5.18 2.08
-3 -3 3 2.63 0.88
3 3 -3 1.86 2.25
3 3 -3 5.84 2.3
-3 3 3 1.73 1.84
-3 3 3 4.74 0.78
3 -3 -3 5.58 1.92
3 -3 -3 5.69 2.97
3 -3 -3 3.82 1.02
3 -3 -3 4.06 1.36
3 -3 -3 3.38 2
-3 3 4 1.46 2.35
-3 3 4 6.38 0.93
3 -3 -4 6.86 1.22
3 -3 -4 6.36 1.76
3 -3 -4 8.91 3.71
3 -3 -4 8.51 2.21
3 -3 -4 8.55 2.5
-4 -3 4 1.87 0.76
-4 -3 4 5.62 2.12
4 3 -4 4.83 1.3
4 3 -4 4.18 1.56
4 3 -4 2.78 2.06
4 3 -4 1.59 2.31
-4 3 -3 1.39 0.64
-4 3 -3 0.85 1.47
-4 -3 3 1.49 0.67
-4 -3 3 2.12 2.28
4 3 -3 2.31 1.04
4 -3 3 -0.57 0.86
4 3 -3 -0.13 2.19
4 3 -3 1.86 1.8
-4 -3 2 0.44 1.77
-4 -3 2 -0.15 0.81
-4 3 -2 0.31 0.67
-4 3 -2 1.72 1.54
4 -3 2 0.94 0.87
4 3 -2 1.52 2.19
4 3 -2 -0.47 1.83
-4 3 -1 6.72 1.67
-4 3 -1 10.17 1.9
-4 3 -1 7.4 0.86
-4 3 -1 10.08 1.37
-4 3 -1 9.37 2.48
-4 -3 1 7.27 0.95
-4 -3 1 8.7 2.02
4 -3 1 8.18 1.14
4 3 -1 8.94 2.13
-4 3 1 6.43 2.2
-4 3 1 8.39 1.86
-4 3 1 9.26 1.53
-4 3 1 8.13 0.98
-4 -3 -1 9.66 0.98
4 -3 -1 8.49 1.9
4 -3 -1 8.59 1.56
4 3 1 8.6 1.61
4 -3 -1 8.73 1.09
4 -3 -1 8.69 2.03
-4 3 2 1.71 0.98
-4 3 2 3.28 1.62
-4 3 2 0.76 1.79
-4 3 2 1.52 0.7
-4 -3 -2 0.15 0.63
4 3 2 1.91 0.55
4 -3 -2 1.28 1.25
4 -3 -2 2.4 1.53
4 3 2 1.87 0.89
4 -3 -2 1.39 1.81
4 -3 -2 1.32 0.94
-4 3 3 3.13 2.27
-4 -3 -3 1.26 0.58
-4 3 3 1.13 0.77
4 3 3 0.17 0.53
4 -3 -3 2.07 1.97
4 -3 -3 1.7 1.42
4 -3 -3 -1.31 3.18
4 -3 -3 1.36 0.93
4 -3 -3 2.7 1.73
-4 3 4 2.99 2.65
-4 3 4 2.54 0.93
4 -3 -4 0.84 3.17
4 -3 -4 3.44 1.82
4 -3 -4 4.38 2.58
4 -3 -4 4.32 1.29
-5 3 -3 0.98 0.56
-5 -3 3 0.56 0.75
-5 -3 3 -2.21 2.57
5 -3 3 0.39 0.74
5 3 -3 -0.29 2.21
5 3 -3 -0.41 1.49
5 3 -3 -3.15 2.16
5 3 -3 -0.67 1.21
-5 3 -2 3.97 1.95
-5 -3 2 1.27 2.68
-5 3 -2 3.03 1.3
-5 -3 2 4.44 2.35
-5 3 -2 3.27 0.69
-5 -3 2 2.52 0.75
-5 3 -2 5.36 1.94
-5 3 -2 4.76 1.35
-5 3 -2 0.79 2.52
5 -3 2 3.58 0.64
5 3 -2 4.55 1.96
5 3 -2 4.09 1.21
5 -3 2 3.07 0.88
5 3 -2 0.63 1.85
-5 -3 1 0.71 2.28
-5 3 -1 2.33 1.42
-5 -3 1 2.86 0.77
-5 3 -1 1.6 1.4
-5 3 -1 2.86 2.29
-5 3 -1 1.83 0.68
-5 3 -1 4.3 2.11
5 3 -1 0 2.17
5 3 -1 0.98 1.65
5 -3 1 1.58 0.63
5 3 -1 1 0.99
5 -3 1 3.44 1.9
5 -3 1 1.84 0.86
-5 3 0 0.18 2.44
-5 3 0 -0.62 2.03
-5 -3 0 0.45 0.76
-5 3 0 -0.1 1.36
-5 3 0 0.23 0.57
-5 -3 0 1.76 2.14
5 3 0 -4.11 2.01
5 -3 0 -2.13 1.92
5 3 0 -0.6 1.31
5 -3 0 -0.11 0.87
5 -3 0 3.44 1.71
5 3 0 -0.43 0.77
-5 3 1 1.36 2.15
-5 -3 -1 2.91 0.86
-5 3 1 2.06 1.29
-5 3 1 2.05 0.73
-5 3 1 1.73 2.02
5 -3 -1 1.98 1
5 3 1 2.71 0.71
5 -3 -1 1.5 1.92
5 -3 -1 1.88 1.6
5 3 1 -0.1 1.95
-5 -3 -2 3.44 0.7
-5 3 2 2.39 2.27
-5 -3 -2 2.75 1.02
-5 3 2 3.57 0.88
-5 3 2 3.22 1.25
-5 3 2 8.24 2.01
5 3 2 3.69 0.78
5 3 2 4.55 0.69
5 3 2 6.11 1.19
5 -3 -2 2.27 2.13
5 3 2 5.79 1.77
5 -3 -2 3.53 1.7
5 -3 -2 3.56 1.15
-5 -3 -3 0.08 0.46
-5 3 3 0.73 0.84
-5 3 3 3.22 3.03
5 3 3 0.99 0.93
5 -3 -3 -1.23 4.26
5 -3 -3 -1.51 1.82
5 3 3 1.31 0.84
5 -3 -3 1.12 2.62
5 -3 -3 0.37 1.23
-6 3 -1 -1.95 2.55
-6 -3 1 -0.02 0.64
-6 3 -1 0.34 0.75
6 3 -1 -2.34 1.39
6 3 -1 -1.68 1.07
6 3 -1 -0.31 2.38
6 3 -1 -3.67 1.89
6 -3 1 0.05 1.02
6 -3 1 -4.76 2.41
-6 3 0 -1.16 2.46
-6 -3 0 1.43 0.7
-6 3 0 0.95 0.82
6 -3 0 1.4 1.86
6 3 0 0.97 1.44
6 -3 0 0.46 2.43
6 3 0 1.83 1.02
6 -3 0 1.53 1.03
6 3 0 -0.72 2.38
-6 3 1 0.66 2.77
-6 3 1 -0.5 0.81
-6 -3 -1 -0.87 0.6
6 3 1 -1.72 1.26
6 -3 -1 -1.48 1.09
6 3 1 -1.88 2.01
6 -3 -1 -3.6 1.94
6 -3 -1 -0.82 2.47
0 -4 -4 6.64 1.31
0 4 4 7.39 2.1
0 4 4 4.93 0.9
0 4 5 0.47 0.62
0 -4 -5 0.13 0.88
0 -4 -5 0.99 0.61
0 4 5 0.69 1.23
-1 4 3 13.09 1.02
1 -4 -3 12.12 1.61
-1 4 4 1.12 0.86
1 -4 -4 0.71 2.12
1 -4 -4 -1.09 1.13
1 -4 -4 0.54 1.41
-1 4 5 2.97 0.77
-1 -4 -5 4.31 0.9
1 -4 -5 4.08 1.16
1 -4 -5 5.05 1.97
1 4 5 3.78 0.66
-2 4 3 4.22 0.88
2 -4 -3 7.35 1.71
2 -4 -3 4.72 1.49
2 -4 -3 5.72 2
2 -4 -3 4.63 1.3
-2 4 4 3.12 0.87
2 -4 -4 2.72 1.59
2 -4 -4 3.65 1.14
2 -4 -4 6.38 2.15
2 -4 -4 2.14 2.54
-3 4 2 0.1 2.12
-3 4 2 1.01 0.76
-3 4 2 0.14 1.07
-3 4 2 0.31 1.55
3 -4 -2 -0.62 1.11
3 -4 -2 -1.1 1.21
3 -4 -2 1.02 1.53
3 -4 -2 -0.97 1.66
-3 4 3 -0.36 2.12
3 -4 -3 1.87 2.65
3 -4 -3 3.58 2.01
3 -4 -3 -2.17 1.61
3 -4 -3 1.1 1.02
-3 4 4 7.26 1.05
3 -4 -4 6.6 1.42
3 -4 -4 5.17 2.14
3 -4 -4 12.56 2.77
-4 4 0 3.31 0.81
-4 4 0 5.82 1.76
4 -4 0 3.49 1.07
-4 4 1 23.2 2.28
-4 4 1 22.46 1.47
-4 4 1 24.95 2.11
-4 4 1 24 3.56
4 -4 -1 20.22 2.16
4 -4 -1 22.51 2.04
4 -4 -1 24.42 2.03
-4 4 2 1.55 2.05
-4 4 2 3.32 1.14
-4 4 2 2.46 2.6
-4 4 2 2.43 1.44
4 -4 -2 2.69 1.58
4 -4 -2 1.22 2.05
4 -4 -2 1.89 2.53
4 -4 -2 -0.39 0.97
-4 4 3 6.55 1.02
-4 4 3 5.07 2.36
4 -4 -3 9.11 2.4
4 -4 -3 6.27 1.24
4 -4 -3 5.53 1.9
4 -4 -3 5.15 2.56
-5 4 -3 1.54 0.89
-5 -4 3 2.39 0.86
5 -4 3 0.35 1.15
-5 4 -2 2.77 2.27
-5 4 -2 3.04 0.93
5 -4 2 0.5 1.19
-5 4 -1 -0.44 1.91
-5 4 -1 -0.51 1.3
-5 4 -1 0.17 0.87
5 -4 1 -0.3 1.21
-5 4 0 10.41 1.86
-5 4 0 4 2.16
-5 4 0 11.74 3.35
-5 4 0 11.13 1.24
5 -4 0 13.39 2.41
5 -4 0 10.26 1.42
-5 4 1 -0.35 1.98
-5 4 1 0.14 0.81
-5 4 1 -1.33 2.54
-5 4 1 -1.79 1.45
5 -4 -1 0.07 1.98
5 -4 -1 -0.26 1.64
5 -4 -1 0.51 0.99
-5 4 2 2.37 0.85
-5 4 2 1.67 2.34
5 -4 -2 1.52 2.42
5 -4 -2 -0.11 1.9
5 4 2 1.44 1.21
5 4 2 1.64 0.71
5 -4 -2 2.2 1.08
-5 4 3 2.54 2.63
-5 4 3 3.71 1.11
5 -4 -3 2.18 1.43
5 -4 -3 2.64 2
5 -4 -3 3.82 2.39
-6 4 -1 0.53 2.44
-6 4 -1 1.06 0.81
-6 -4 1 1 0.81
6 -4 1 0.91 0.99
-6 -4 0 2.13 0.94
-6 4 0 1.28 2.62
-6 4 0 -0.93 0.74
6 -4 0 0.16 1.07
6 -4 0 5.62 2.67
-6 4 1 0 2.43
-6 -4 -1 0.22 0.92
-6 4 1 1.7 0.96
6 -4 -1 0.82 1.16
6 -4 -1 2.56 2.42
6 -4 -1 -0.37 1.79
-2 5 4 0.09 0.98
2 -5 -4 5.79 2.29
2 -5 -4 -0.55 1.62
-3 5 3 -1.52 0.91
3 -5 -3 -0.27 1.62
3 -5 -3 0.33 1.53
-3 5 4 4.35 1.19
3 -5 -4 0.69 1.2
3 -5 -4 0.98 2.1
-4 5 1 9.33 2.12
-4 5 2 8.56 2.36
-4 5 2 4.79 1.15
4 -5 -2 6.81 1.55
4 -5 -2 4.62 1.83
4 -5 -2 7.2 2.22
-4 5 3 -2.95 2.4
-4 5 3 3.6 1.28
4 -5 -3 -2.75 1.78
4 -5 -3 -1.42 0.96
4 -5 -3 -3.14 3.05
4 -5 -3 -1.74 2.32
-5 5 0 6.97 2.24
-5 5 1 3.24 2.28
-5 5 1 1.9 1.07
5 -5 -1 0.87 1.38
-5 5 2 -2.26 2.51
5 -5 -2 -0.56 1.15
5 -5 -2 -2.34 1.95
5 -5 -2 1.15 2.63
-6 5 0 5.49 2.6
-6 5 0 2.86 1.21
6 -5 0 3.61 1.18
4 -6 -3 6.82 2.5
