#------------------------------------------------------------------------------
#$Date: 2019-12-02 13:46:09 +0200 (Mon, 02 Dec 2019) $
#$Revision: 244843 $
#$URL: file:///home/coder/svn-repositories/cod/cif/4/51/38/4513829.cif $
#------------------------------------------------------------------------------
#
# This file is available in the Crystallography Open Database (COD),
# http://www.crystallography.net/
#
# All data on this site have been placed in the public domain by the
# contributors.
#
data_4513829
loop_
_publ_author_name
'Sobczak, Szymon'
'Katrusiak, Andrzej'
_publ_section_title
;
 Singularities in Molecular Conformation
;
_journal_coden_ASTM              CGDEFU
_journal_issue                   11
_journal_name_full               'Crystal Growth & Design'
_journal_page_first              5530
_journal_page_last               5534
_journal_paper_doi               10.1021/acs.cgd.5b01156
_journal_volume                  15
_journal_year                    2015
_chemical_formula_moiety         'C6 H12 O'
_chemical_formula_sum            'C6 H12 O'
_chemical_formula_weight         100.16
_chemical_melting_point          220.65
_chemical_name_common            pinacolone
_chemical_name_systematic        3,3-Dimethyl-2-butanone
_space_group_crystal_system      monoclinic
_space_group_IT_number           11
_space_group_name_Hall           '-P 2yb'
_space_group_name_H-M_alt        'P 1 21/m 1'
_symmetry_space_group_name_Hall  '-P 2yb'
_symmetry_space_group_name_H-M   'P 1 21/m 1'
_atom_sites_solution_hydrogens   difmap
_atom_sites_solution_primary     direct
_audit_block_doi                 10.5517/cc13lkhr
_audit_update_record
;
2015-10-05 deposited with the CCDC.
2016-03-01 downloaded from the CCDC.
;
_cell_angle_alpha                90
_cell_angle_beta                 107.97(3)
_cell_angle_gamma                90
_cell_formula_units_Z            2
_cell_length_a                   5.684(3)
_cell_length_b                   8.5670(6)
_cell_length_c                   6.8598(8)
_cell_measurement_reflns_used    600
_cell_measurement_temperature    298
_cell_measurement_theta_max      25.7420
_cell_measurement_theta_min      5.6740
_cell_volume                     317.74(18)
_computing_cell_refinement
;
CrysAlisPro, Agilent Technologies,
Version 1.171.36.28 (release 01-02-2013 CrysAlis171 .NET)
(compiled Feb  1 2013,16:14:44)
;
_computing_data_collection
;
CrysAlisPro, Agilent Technologies,
Version 1.171.36.28 (release 01-02-2013 CrysAlis171 .NET)
(compiled Feb  1 2013,16:14:44)
;
_computing_data_reduction
;
CrysAlisPro, Agilent Technologies,
Version 1.171.36.28 (release 01-02-2013 CrysAlis171 .NET)
(compiled Feb  1 2013,16:14:44)
;
_computing_molecular_graphics    'Olex2 (Dolomanov et al., 2009)'
_computing_publication_material  'Olex2 (Dolomanov et al., 2009)'
_computing_structure_refinement  'ShelXL (Sheldrick, 2008)'
_computing_structure_solution    'ShelXS (Sheldrick, 2008)'
_diffrn_ambient_temperature      298
_diffrn_detector_area_resol_mean 16.2413
_diffrn_measured_fraction_theta_full 0.319
_diffrn_measured_fraction_theta_max 0.300
_diffrn_measurement_device_type  'Xcalibur, Eos'
_diffrn_measurement_method       '\w and \p scans'
_diffrn_orient_matrix_UB_11      -0.1259376000
_diffrn_orient_matrix_UB_12      0.0229609000
_diffrn_orient_matrix_UB_13      -0.0266975000
_diffrn_orient_matrix_UB_21      0.0367396000
_diffrn_orient_matrix_UB_22      0.0753470000
_diffrn_orient_matrix_UB_23      0.0408889000
_diffrn_orient_matrix_UB_31      0.0047096000
_diffrn_orient_matrix_UB_32      0.0254129000
_diffrn_orient_matrix_UB_33      -0.0970975000
_diffrn_radiation_monochromator  graphite
_diffrn_radiation_type           MoK\a
_diffrn_radiation_wavelength     0.71073
_diffrn_reflns_av_R_equivalents  0.0185
_diffrn_reflns_av_unetI/netI     0.0105
_diffrn_reflns_Laue_measured_fraction_full 0.319
_diffrn_reflns_Laue_measured_fraction_max 0.300
_diffrn_reflns_limit_h_max       3
_diffrn_reflns_limit_h_min       -3
_diffrn_reflns_limit_k_max       10
_diffrn_reflns_limit_k_min       -10
_diffrn_reflns_limit_l_max       8
_diffrn_reflns_limit_l_min       -8
_diffrn_reflns_number            1352
_diffrn_reflns_point_group_measured_fraction_full 0.319
_diffrn_reflns_point_group_measured_fraction_max 0.300
_diffrn_reflns_theta_full        26.000
_diffrn_reflns_theta_max         26.851
_diffrn_reflns_theta_min         5.695
_diffrn_source                   'Enhance (Mo) X-ray Source'
_exptl_absorpt_coefficient_mu    0.069
_exptl_absorpt_correction_T_max  1.00000
_exptl_absorpt_correction_T_min  0.59903
_exptl_absorpt_correction_type   multi-scan
_exptl_absorpt_process_details
;
CrysAlisPro, Agilent Technologies,
Version 1.171.36.28 (release 01-02-2013 CrysAlis171 .NET)
(compiled Feb  1 2013,16:14:44)
Empirical absorption correction using spherical harmonics,
 implemented in SCALE3 ABSPACK scaling algorithm.
;
_exptl_crystal_colour            'clear whiteish colourless'
_exptl_crystal_colour_lustre     clear
_exptl_crystal_colour_modifier   whiteish
_exptl_crystal_colour_primary    colourless
_exptl_crystal_density_diffrn    1.047
_exptl_crystal_density_method    'not measured'
_exptl_crystal_description       block
_exptl_crystal_F_000             112
_exptl_crystal_preparation
'The lhigh-pressure experiment was performed using modified Merrill-Bassett diamond-anvil cell (DAC)'
_exptl_crystal_size_max          0.39221
_exptl_crystal_size_mid          0.39221
_exptl_crystal_size_min          0.3
_refine_diff_density_max         0.059
_refine_diff_density_min         -0.046
_refine_diff_density_rms         0.013
_refine_ls_extinction_coef       .
_refine_ls_extinction_method     none
_refine_ls_goodness_of_fit_ref   1.082
_refine_ls_hydrogen_treatment    refxyz
_refine_ls_matrix_type           full
_refine_ls_number_parameters     64
_refine_ls_number_reflns         219
_refine_ls_number_restraints     16
_refine_ls_restrained_S_all      1.052
_refine_ls_R_factor_all          0.0414
_refine_ls_R_factor_gt           0.0335
_refine_ls_shift/su_max          0.000
_refine_ls_shift/su_mean         0.000
_refine_ls_structure_factor_coef Fsqd
_refine_ls_weighting_details
'w=1/[\s^2^(Fo^2^)+(0.0482P)^2^+0.0564P] where P=(Fo^2^+2Fc^2^)/3'
_refine_ls_weighting_scheme      calc
_refine_ls_wR_factor_gt          0.0855
_refine_ls_wR_factor_ref         0.0907
_reflns_Friedel_coverage         0.000
_reflns_Friedel_fraction_full    .
_reflns_Friedel_fraction_max     .
_reflns_number_gt                187
_reflns_number_total             219
_reflns_threshold_expression     'I > 2\s(I)'
_cod_data_source_file            1030727-1030734.cif
_cod_data_source_block           pin_hp_0_64
_cod_depositor_comments
;
 Updated bibliographic information.

 Antanas Vaitkus,
 2019-12-02
;
_cod_original_cell_volume        317.74(19)
_cod_database_code               4513829
_shelxl_version_number           2013-4
_chemical_oxdiff_formula         C6H12O1
_shelx_space_group_comment
;
The symmetry employed for this shelxl refinement is uniquely defined
by the following loop, which should always be used as a source of
symmetry information in preference to the above space-group names.
They are only intended as comments.
;
_reflns_odcompleteness_completeness 30.11
_reflns_odcompleteness_iscentric 1
_reflns_odcompleteness_theta     26.79
_shelx_res_file
;
TITL pol0_58 in P2(1)/m
CELL 0.71073 5.684051 8.566954 6.859775 90 107.9713 90
ZERR 2 0.003175 0.000552 0.00082 0 0.0307 0
LATT 1
SYMM -X,0.5+Y,-Z
SFAC C H O
UNIT 12 24 2
DFIX 0.96 H5c C5
DFIX 0.96 C4 H4a
DFIX 1.2 C2 O1
DFIX 1.53 C2 C1
DFIX 0.96 H1c C1
DFIX 0.96 H1a C1
DFIX 0.96 C1 H1b
RIGU C3 C2 O1

L.S. 50 0 0
PLAN  1
TEMP 24.85
CONN 24 C1
BOND
MORE -1
CONF
fmap 2 53
acta 52
OMIT -1 4 2
REM <olex2.extras>
REM <HklSrc "%.\\pol0_58.hkl">
REM </olex2.extras>

WGHT    0.048200    0.056400
FVAR      37.77478
C3    1    0.601716    0.250000    0.277179    10.50000    0.02837    0.04276 =
         0.04165    0.00000    0.00579    0.00000
C5    1    0.748481    0.394959    0.252071    11.00000    0.09335    0.04548 =
         0.06314    0.00365    0.03518   -0.00482
H5A   2    0.680133    0.484850    0.283601    11.00000   -1.50000
H5B   2    0.750005    0.404362    0.113044    11.00000   -1.50000
H5C   2    0.911118    0.389122    0.352980    11.00000   -1.50000
C4    1    0.346431    0.250000    0.119150    10.50000    0.04561    0.08147 =
         0.05707    0.00000    0.00513    0.00000
H4A   2    0.257298    0.342518    0.137240    11.00000   -1.50000
C2    1    0.585533    0.250000    0.493690    10.50000    0.04998    0.04818 =
         0.05268    0.00000    0.02067    0.00000
C1    1    0.818020    0.250000    0.670267    10.50000    0.06356    0.11067 =
         0.03928    0.00000    0.00081    0.00000
PART -1
H1A   2    0.798134    0.202113    0.790586    10.50000   -1.50000
H1B   2    0.795879    0.354395    0.715620    10.50000   -1.50000
H1C   2    0.950792    0.195802    0.638829    10.50000   -1.50000
PART 0
O1    3    0.382145    0.250000    0.521486    10.50000    0.06154    0.12518 =
         0.07721    0.00000    0.03984    0.00000
H4B   2    0.369648    0.250000   -0.023219    10.50000    0.07260
HKLF 4

REM  pol0_58 in P2(1)/m
REM R1 =  0.0335 for     187 Fo > 4sig(Fo)  and  0.0414 for all     219 data
REM     64 parameters refined using     16 restraints

END

WGHT      0.0472      0.0570

REM Highest difference peak  0.059,  deepest hole -0.046,  1-sigma level  0.013
Q1    1   0.5937  0.2500  0.3814  10.50000  0.05    0.06
;
_shelx_res_checksum              2312
_shelx_hkl_file
;
   0   0  -2 196443. 1477.17  15
   0   0  -2 197084. 1467.66  16
   0   0   2 192646. 1515.62  12
   0   0   2 195119. 1452.04  13
   0   0   2 196843. 1425.75   5
   0   0  -2 195833. 1494.44   9
   0   0  -3 40294.7 844.804  16
   0   0   3 36845.8 766.539   5
   0   0   3 39858.8 859.804  12
   0   0  -3 41107.5 798.515   8
   0   0  -3 39454.0 848.823   9
   0   0   3 39782.5 826.302  13
   0   0  -3 38833.3 835.425  15
   0   0   4 156004. 1937.31  13
   0   0   4 160202. 2056.55  12
   0   0  -4 154633. 1786.46   8
   0   0  -4 153233. 1981.50   9
   0   0  -4 146369. 1932.12  16
   0   0  -4 151574. 1957.58  15
   0   0  -5 150893. 2310.15  16
   0   0   5 148234. 2334.56  12
   0   0  -5 147257. 2323.00   9
   0   0  -5 146093. 2121.87   8
   0  -1  -2 326745. 1948.51   8
   0  -1  -2 325187. 1805.44   3
   0   1  -2 326726. 2076.38  15
   0  -1   2 320309. 2045.11  12
   0  -1  -2 324326. 1954.61   9
   0   1   2 326288. 1970.79  12
   0   1   2 327921. 1784.43   4
   0   1  -2 320661. 1964.92  10
   0   1  -2 323603. 2032.25  16
   0   1  -2 323742. 1973.94   9
   0   1   2 323791. 1966.93   5
   0   1   2 324834. 1725.47  13
   0  -1   2 326290. 2039.55  13
   0   1   3 57863.1 870.826   2
   0   1   3 60687.2 1069.58  12
   0   1   3 62083.1 1078.37   5
   0   1   3 59759.7 947.616  13
   0  -1   3 60310.7 1077.88  13
   0  -1  -3 58400.4 870.318   1
   0   1  -3 61967.7 1084.42   9
   0   1  -3 63491.6 927.160   8
   0  -1  -3 60615.8 968.659  15
   0  -1  -3 60506.2 1056.14   9
   0  -1   3 61364.0 1113.41  12
   0   1  -3 61753.1 1100.95  16
   0  -1  -3 61214.8 1026.40   8
   0  -1  -3 62726.9 985.098  16
   0   1  -3 60288.0 1100.54  15
   0  -1   4 2385.10 281.546  13
   0  -1  -4 1917.87 231.962  16
   0   1  -4 2560.21 311.659   9
   0  -1  -4 2170.59 261.150   8
   0   1   4 2648.36 291.185  12
   0  -1  -4 2375.72 274.034   9
   0   1  -4 2530.73 311.579  16
   0   1  -4 3075.62 289.572   8
   0   1   4 2117.27 237.270  13
   0   1   4 2304.06 263.967   5
   0  -1  -4 2225.52 254.398  15
   0   1  -4 2401.83 287.365  15
   0   1   5 15672.2 762.309  12
   0  -1  -5 13767.2 710.529   9
   0  -1  -5 15012.4 704.900   8
   0  -1  -5 13601.6 639.382  16
   0  -2  -1 406405. 2042.75   1
   0   2  -1 394939. 2077.72   7
   0   2   1 390793. 2046.06   2
   0   2  -1 407761. 2130.52  10
   0  -2  -1 413734. 1832.53   6
   0  -2  -2 152215. 1418.06   1
   0  -2  -2 155642. 1423.47   3
   0   2   2 151844. 1422.78   2
   0  -2  -2 154733. 1370.45   9
   0   2   2 152981. 1489.68   5
   0  -2   2 152584. 1534.63  13
   0   2   2 154811. 1418.24  12
   0   2   2 153245. 1076.28  13
   0   2  -2 152335. 1500.37  16
   0   2   2 154817. 1439.04   4
   0  -2  -2 147741. 1124.83   6
   0   2  -2 152933. 1582.09  15
   0   2  -2 155795. 1571.61  10
   0  -2  -2 155053. 1505.71   8
   0  -2  -3 52417.1 844.352  15
   0   2   3 52909.2 1036.36   5
   0   2  -3 53580.0 1110.05  15
   0   2  -3 52428.7 1070.27  16
   0   2   3 49959.1 818.009  13
   0  -2   3 51866.5 1066.90  13
   0  -2  -3 52676.2 926.505   1
   0   2   3 52558.3 1005.87  12
   0  -2  -3 52912.2 834.081  16
   0   2   3 50323.0 950.144   4
   0  -2  -3 54186.8 1053.37   8
   0  -2  -3 53461.7 973.477   3
   0   2   3 48750.9 918.169   2
   0  -2  -3 51736.6 979.937   9
   0  -2  -4 13971.3 533.417  16
   0  -2  -4 13785.5 583.504   3
   0   2   4 13628.8 626.874   5
   0   2   4 13717.8 591.317   4
   0  -2  -4 13756.3 559.266  15
   0  -2  -4 13017.9 522.866   1
   0   2   4 14505.7 638.255  12
   0   2   4 13073.2 536.030   2
   0  -2  -4 13751.8 615.497   9
   0  -2  -4 13937.5 621.100   8
   0   2   4 14257.6 542.891  13
   0  -2  -5 80626.1 1653.20   8
   0   2   5 86033.8 1755.56   5
   0   2   5 87132.6 1763.85  12
   0  -2  -5 79738.4 1485.67  16
   0  -2  -5 78961.0 1640.66   9
   0  -2  -6 16104.1 886.195   8
   0  -2  -6 14532.6 822.459   9
   0   2   6 16508.5 934.085  12
   0  -3   0 205.201 74.4157   6
   0  -3   0 203.534 80.0722   3
   0   3   0 315.204 96.3317   4
   0  -3   0 128.558 65.6539   1
   0   3   0 436.092 100.501   7
   0   3   0 193.822 78.1148   2
   0   3   1 165690. 1583.76   4
   0  -3  -1 163711. 1603.41   3
   0   3   1 164524. 1464.49   7
   0  -3  -1 158170. 1488.89   8
   0  -3  -1 161720. 1551.50   1
   0   3  -1 163879. 1430.27   4
   0   3  -1 158925. 1597.24   7
   0   3  -1 163028. 1341.47  16
   0   3  -1 165044. 1604.45  10
   0   3   1 161627. 1491.33   5
   0  -3  -1 160138. 1428.38   6
   0  -3   1 162401. 1429.94   3
   0   3   1 166989. 1603.94   2
   0  -3  -2 81055.9 1190.85   1
   0   3   2 77429.3 1045.30  12
   0   3   2 73457.4 1176.09   2
   0  -3  -2 73677.9 973.945   6
   0  -3  -2 78815.2 1196.07   8
   0  -3  -2 78130.9 1056.38   9
   0   3   2 80867.4 1217.67   4
   0   3   2 78891.2 1192.39   5
   0  -3  -2 80404.4 1200.62   3
   0   3   2 78557.0 997.034   7
   0   3   3 17035.2 636.263   4
   0  -3  -3 19233.5 674.182   8
   0  -3  -3 18893.1 657.717   3
   0   3   3 19090.1 682.984   5
   0  -3  -3 18226.9 613.832   9
   0  -3  -3 18961.0 628.275   1
   0   3   3 19057.1 657.570   2
   0   3   3 18570.3 623.339  12
   0  -3  -3 18870.1 474.442  16
   0   3   4 309.024 153.301   2
   0  -3  -4 39.2542 155.398   8
   0   3   4 357.470 155.740   4
   0  -3  -4 336.735 162.175   3
   0   3   4 476.284 207.826   5
   0  -3  -4 133.542 161.109   9
   0   3   4 371.605 179.549  12
   0  -3  -4 369.046 143.892   1
   0   3   5 3675.99 421.251   5
   0  -3  -5 3252.54 408.634   8
   0   3   5 4038.71 434.608  12
   0  -3  -5 3636.41 425.101   9
   0   3   6 5232.58 584.382  12
   0   3   6 4382.14 530.628   5
   0  -3  -6 4316.50 515.014   8
   0  -3  -6 4175.57 466.442   9
   0   4   0 306556. 2071.32   5
   0   4   0 301187. 2437.43   7
   0   4   0 312741. 2442.90   4
   0  -4   0 309247. 2434.22   1
   0  -4   0 309218. 2442.01   6
   0  -4   0 314083. 2445.20   3
   0   4   0 302620. 2479.86   2
   0  -4  -1 153369. 1780.94   3
   0   4   1 153230. 1696.32   7
   0   4   1 148183. 1575.83   5
   0   4  -1 148525. 1621.62   4
   0  -4  -1 147585. 1636.41   6
   0  -4  -1 148271. 1609.91   8
   0   4   1 153063. 1773.85   2
   0  -4   1 151818. 1633.60   3
   0  -4   1 151548. 1787.70   6
   0   4   1 151071. 1740.10   4
   0  -4  -1 149518. 1733.39   1
   0   4  -1 155898. 1823.44   7
   0   4   2 127719. 1662.93   5
   0  -4  -2 135653. 1742.98   8
   0  -4  -2 133552. 1486.23   9
   0  -4  -2 131505. 1706.41   1
   0  -4  -2 130014. 1747.57   3
   0  -4  -2 137059. 1563.34   6
   0   4   2 135457. 1573.06   7
   0   4   2 130311. 1741.54   2
   0   4   2 129283. 1768.32   4
   0   4   3 13804.1 619.987   4
   0   4   3 13427.0 620.603   5
   0  -4  -3 13273.9 610.327   8
   0  -4  -3 13348.4 604.003   3
   0   4   3 11754.3 645.120   2
   0  -4  -3 12331.3 586.512   1
   0   4   3 12720.5 535.166  12
   0  -4  -3 12844.5 551.222   9
   0   4   4 336.850 203.398   2
   0   4   4 481.649 237.254   5
   0  -4  -4 327.705 180.614   3
   0  -4  -4-16.6690 141.368   1
   0   4   4 435.505 205.559  12
   0   4   4 179.289 174.185   4
   0  -4  -4 395.002 190.652   9
   0  -4  -4 553.188 246.809   8
   0   4   5 46552.1 1449.84   5
   0  -4  -5 48539.9 1442.17   8
   0  -4  -5 44478.2 1314.21   9
   0   4   5 46428.9 1350.44  12
   0   4   6 15920.7 948.336   5
   0  -4  -6 15245.3 884.962   9
   0  -4  -6 14780.6 892.788   8
   0   4   6 16205.2 935.313  12
   0  -5   0-307.795 146.401   3
   0  -5   0 183.411 184.607   6
   0   5   0 225.267 179.908   4
   0  -5   0-106.742 134.657   1
   0   5   0 49.3228 134.294   5
   0   5   1 5824.01 416.615   2
   0   5   1 5542.05 344.618   5
   0  -5  -1 5317.78 377.926   8
   0  -5  -1 5062.74 377.453   1
   0   5   1 6016.57 405.635   7
   0  -5  -1 5338.35 368.557   6
   0  -5  -1 5110.01 380.523   3
   0   5   1 5238.54 384.211   4
   0  -5  -2 10331.3 500.870   6
   0  -5  -2 10562.4 538.753   8
   0   5   2 9963.66 515.250   5
   0  -5  -2 11016.9 574.329   3
   0   5   2 10275.8 562.857   4
   0  -5  -2 11042.7 568.359   1
   0   5   2 10566.6 526.423   7
   0   5   2 10859.2 579.263   2
   0  -5  -3 1149.84 234.896   1
   0  -5  -3 1696.00 299.561   3
   0   5   3 1471.10 266.418   5
   0  -5  -3 1190.70 216.143   9
   0   5   3 1199.34 252.670   2
   0   5   3 1419.54 275.618   4
   0  -5  -3 1210.91 259.797   8
   0   5   3 1001.69 189.321  12
   0   5   4 1559.49 281.103  12
   0  -5  -4 1576.16 296.871   9
   0   5   4 2144.43 346.524   2
   0  -5  -4 1696.49 296.437   1
   0   5   4 1808.38 327.894   4
   0  -5  -4 1995.67 377.669   8
   0   5   4 1514.62 297.869   5
   0  -5  -4 1832.02 321.504   3
   0   5   5 219.901 253.936   5
   0  -5  -5 521.906 283.023   8
   0  -5  -5 639.391 258.036   3
   0   5   5 866.343 273.537  12
   0  -5  -5 1200.87 333.369   9
   0   5   5 769.786 284.636   2
   0   5   6 4061.36 572.294   5
   0  -5  -6 3351.17 499.674   9
   0   5   6 3794.21 549.916  12
   0  -5  -6 4874.02 585.286   8
   0  -5  -7 2939.62 554.558   8
   0  -6   0 317844. 3118.84   6
   0   6   0 313676. 3009.20   4
   0  -6   0 306447. 3057.24   3
   0   6   0 317300. 3142.91   7
   0   6   1 25254.4 918.059   4
   0  -6  -1 26252.3 912.455   3
   0   6   1 26148.0 909.574   7
   0   6   1 29755.5 1008.17   2
   0  -6  -1 26756.4 897.320   6
   0  -6  -1 25847.7 910.588   1
   0   6   1 25540.1 827.624   5
   0  -6  -2 3596.11 341.266   6
   0  -6  -2 4164.03 407.114   3
   0   6   2 4106.81 401.407   4
   0   6   2 3720.09 359.712   5
   0   6   2 4158.05 422.861   2
   0  -6  -2 4065.98 403.569   1
   0  -6  -2 4160.57 395.996   8
   0   6   2 3993.80 377.544   7
   0   6   3 2400.99 360.378   2
   0  -6  -3 2935.64 353.555   8
   0   6   3 2618.11 331.914   5
   0   6   3 2837.84 391.511   4
   0  -6  -3 2744.93 352.095   1
   0  -6  -3 2335.55 367.950   3
   0   6   4 21629.9 1029.67   2
   0  -6  -4 22538.0 988.849   1
   0   6   4 22528.3 1031.69   4
   0  -6  -4 22461.6 988.562   8
   0  -6  -4 22834.8 1019.92   3
   0   6   4 22722.4 1031.93   5
   0   6   5 21770.0 1118.60   5
   0   6   5 16897.6 956.138   4
   0  -6  -5 21133.3 1074.92   8
   0   6   5 23263.5 1142.77   2
   0  -6  -5 19118.8 995.328   3
   0   6   6 49.5581 314.619   5
   0  -6  -6 176.434 300.927   8
   0  -7  -1 56537.2 1483.80   3
   0  -7  -1 51376.8 1436.66   1
   0   7   1 52737.7 1235.51   5
   0   7   1 56017.3 1505.99   4
   0  -7  -1 57707.3 1477.17   6
   0   7   1 58873.5 1589.32   2
   0   7   2 2232.51 373.580   2
   0  -7  -2 1868.59 307.966   6
   0  -7  -2 1943.61 338.791   1
   0   7   2 1983.89 336.868   5
   0  -7  -2 1453.71 315.598   3
   0   7   2 2297.37 392.128   4
   0   7   3 17718.9 902.006   5
   0   7   3 18357.3 984.671   2
   0  -7  -3 18589.5 934.613   1
   0  -7  -3 16832.5 888.003   8
   0  -7  -3 18230.7 939.070   3
   0   7   3 18199.3 969.396   4
   0   7   4 764.746 316.467   5
   0  -7  -4 1036.59 309.928   8
   0  -7  -4 675.095 282.728   3
   0  -7  -4 566.483 268.281   1
   0   7   4 505.745 306.163   2
   0   7   4 1054.15 376.376   4
   0   7   5 7529.96 739.333   5
   0   7   5 7175.12 720.451   4
   0   7   5 9835.87 858.224   2
   0  -7  -5 7589.08 711.030   8
   0  -7  -5 8419.55 741.263   1
   0  -7  -5 7267.55 730.355   3
   0  -7  -6 1809.89 459.662   8
   0  -8  -3 950.221 328.156   1
   0   8   3 961.003 389.585   4
   0   8   3 646.833 348.295   2
   0  -8  -3 662.989 318.459   3
   0   8   3 985.148 343.221   5
   0   8   4 9015.73 858.760   2
   0   8   4 7523.64 751.906   5
   0   8   4 9443.90 857.675   4
   0  -8  -4 8103.52 753.797   8
   0  -8  -4 8681.79 784.320   3
   0  -8  -4 8502.60 766.311   1
   0  -8  -5 5636.24 733.081   8
   0   8   5 6100.71 799.817   4
   0  -8  -5 5867.61 736.123   3
   0  -8  -5 5844.07 696.024   1
   0   8   5 6832.91 818.332   2
  -1   0   7 4782.18 542.250  14
   1   0  -7 5717.32 598.159   9
   1   0  -7 5276.16 589.336  16
   1   0  -7 4911.31 536.971  15
  -1   0   7 5429.35 551.406  13
  -1   0   7 5738.82 591.142  12
   1   0  -6 138.578 211.961  15
   1   0  -6 479.204 241.483   9
  -1   0   6 374.027 257.843  13
   1   0  -6 621.586 261.129  16
  -1   0   6 328.468 229.621  14
  -1   0   6-128.224 259.183  12
  -1   0   5 27185.8 902.550  12
  -1   0   5 27546.5 925.206  13
   1   0  -5 26272.2 914.672   9
  -1   0   5 25687.0 809.043   5
   1   0  -5 27584.0 793.986   8
   1   0  -5 26241.8 908.343  16
  -1   0   5 26403.9 919.480  14
   1   0  -5 25775.8 909.346  15
  -1   0   4 65811.6 1065.29   5
  -1   0   4 64573.7 1039.99  11
   1   0  -4 65395.5 1228.20   9
  -1   0   4 62665.0 1245.71  14
   1   0  -4 67093.7 1066.87   8
   1   0  -4 65512.9 1234.21  16
  -1   0   4 65956.5 1228.34  12
   1   0  -4 67211.3 1277.71  15
   1   0  -4 64736.2 1045.57  10
   1   0  -3 999999. 3506.63   8
   1   0  -2 46625.5 762.810  16
  -1   0   2 47625.4 788.095  14
   1   0  -2 49399.2 798.994  15
   1   0  -2 49287.4 779.828   9
   1  -1  -8 222.338 364.044   9
  -1  -1   7 254.036 260.074  13
   1   1  -7 600.185 355.273  16
   1  -1  -7 493.013 294.322  16
  -1   1   7 253.732 258.834  13
   1  -1  -7 411.861 342.401   9
   1   1  -7 33.9907 289.319   9
  -1   1   7 206.654 292.374  12
   1   1  -7 324.217 266.355  15
   1  -1  -7-64.2199 258.976  15
  -1  -1   7 683.444 308.978  12
  -1   1   7 229.280 245.717  14
  -1  -1   7 1014.43 329.014  14
  -1   1   6 658.454 258.891  13
   1  -1  -6 722.182 235.547  16
  -1   1   6 515.380 238.021   5
   1   1  -6 636.377 267.555   9
  -1  -1   6 382.940 224.613  14
   1  -1  -6 515.354 235.386   9
  -1   1   6 95.8292 228.116  12
   1   1  -6 525.141 226.101  15
   1  -1  -6 488.289 219.653  15
  -1   1   6 659.354 246.143  14
  -1  -1   6 884.832 259.047  13
  -1  -1   6 623.086 253.753  12
   1   1  -6 622.436 273.837  16
  -1  -1   5-11.2209 173.151  12
   1  -1  -5 250.626 183.870  15
  -1  -1   5 104.992 142.628  11
  -1  -1   5 124.581 162.023  13
   1   1  -5 239.845 191.581   9
  -1   1   5 340.495 191.040   5
   1  -1  -5 118.482 194.175   9
   1   1  -5 260.723 158.811  10
   1   1  -5 594.154 202.425  16
   1  -1  -5 169.225 188.676  16
   1  -1  -5-39.7158 155.237   8
  -1   1   5 121.442 214.591  12
  -1   1   5-18.1112 143.820  14
  -1   1   5 145.619 171.088  13
   1   1  -5-123.581 161.691  15
  -1  -1   4 2367.10 251.065  12
   1   1  -4 2146.80 257.323  15
   1   1  -4 2387.20 258.929   9
   1  -1  -4 2083.50 258.725   9
  -1  -1   4 1979.21 229.868  11
   1   1  -4 2349.93 201.338   8
   1  -1  -4 2335.05 235.005   8
  -1   1   4 2191.07 238.153   5
   1  -1  -4 2474.17 263.966  16
  -1  -1   4 2867.30 221.201   5
   1   1  -4 2407.63 277.275  16
  -1   1   4 2090.01 238.780  14
   1  -1  -4 2054.59 247.065  15
   1   1  -4 1736.32 224.061  10
  -1  -1   4 2105.67 249.287  13
   1  -1  -3 350938. 2418.66  15
  -1   1   3 352995. 1960.90   4
   1   1  -3 369671. 2411.61  10
   1   1  -3 362854. 2575.72  15
  -1   1   3 363694. 2411.61   5
   1  -1  -3 359753. 1946.70   3
  -1  -1   3 362901. 1807.38   5
   1   1  -3 358816. 2349.36   9
  -1  -1   3 362081. 2420.78  11
   1  -1  -3 358880. 2392.15   8
   1   1  -3 359226. 2526.67  16
   1  -1  -3 364606. 2483.26  16
  -1  -1   3 362727. 2546.93  14
  -1   1   3 358220. 2505.29  14
  -1  -1   3 358643. 2070.04   6
   1  -1  -3 357067. 2549.78   9
   1  -2  -8 8368.12 845.766   9
   1   2  -7 101.431 268.110   9
   1  -2  -7 173.794 290.179   9
   1   2  -7 268.157 299.044  16
   1   2  -7 365.986 272.925  15
  -1  -2   7 195.247 302.550  14
  -1  -2   7 382.985 295.116  13
  -1   2   7 301.130 305.244  12
  -1   2   6 202.671 252.862  12
   1  -2  -6 162.158 207.890   8
   1  -2  -6 6.22097 243.313   9
  -1   2   6-133.229 219.517  13
  -1   2   6 197.470 237.833   5
   1   2  -6 406.689 250.481   9
   1   2  -6 520.217 287.802  16
   1   2  -6-2.61130 231.207  15
  -1  -2   6-88.4189 220.819  13
   1  -2  -6 143.581 209.705  16
  -1  -2   6 171.769 250.519  12
  -1   2   5 1564.28 285.935  12
   1  -2  -5 2158.58 312.813   8
   1  -2  -5 1861.37 273.447  16
  -1  -2   5 1648.84 262.522  11
   1   2  -5 1917.70 282.908  10
   1   2  -5 1595.84 253.394   9
   1  -2  -5 1836.07 313.141   9
  -1   2   5 2000.46 307.117   5
   1  -2  -5 1975.45 282.859  15
   1   2  -5 1764.10 293.546  15
  -1   2   5 1753.14 283.773  14
   1   2  -5 2114.84 312.542  16
  -1  -2   5 2189.42 309.984  13
  -1   2   5 1673.28 267.648  13
  -1  -2   5 1798.63 286.012  12
   1  -2  -4 11923.9 470.403   3
   1   2  -4 11691.6 565.239  10
  -1  -2   4 13182.8 539.803  12
  -1   2   4 12135.5 568.178   5
   1   2  -4 12035.0 499.917   9
   1  -2  -4 12510.8 585.414   9
  -1  -2   4 12578.1 556.962  11
  -1   2   4 12192.2 539.403  14
   1  -2  -4 13068.5 574.637   8
   1   2  -4 12202.3 585.152  15
   1  -2  -4 13329.9 530.430  15
  -1   2   4 11916.2 471.574   4
   1  -2  -4 11853.0 524.164  16
  -1  -2   4 13211.3 590.320  13
   1   2  -4 13171.6 590.539  16
  -1   2   3 141703. 1529.45   4
   1  -2  -3 145649. 1507.10  15
  -1   2   3 138265. 1679.08   5
   1   2  -3 137165. 1383.73   9
   1  -2  -3 139381. 1672.36   9
   1   2  -3 136255. 1371.01   7
   1   2  -3 142510. 1648.08  10
   1  -2  -3 145258. 1717.76   8
   1   2  -3 133687. 1661.72  15
   1  -2  -3 135691. 1474.98   3
  -1  -2   3 138593. 1630.00  11
   1   2  -3 133392. 1586.42  16
  -1  -2   3 135345. 1371.87   6
  -1  -2   3 134042. 1411.81  12
  -1  -2   2 58956.9 948.702  11
   1   2  -2 57606.7 915.651  15
   1   2  -2 58427.9 901.307  16
  -1  -2   2 57041.2 915.320  14
  -1  -2   2 61590.7 891.319   6
   1   2  -2 59751.5 862.537   7
   1   2  -2 56862.1 968.404  10
   1   2   0 685906. 3191.73   7
   1  -3  -8 4247.91 623.806   9
   1  -3  -7 191.523 264.051   8
  -1   3   7-75.8357 304.142   5
   1  -3  -7 480.403 320.764   9
  -1   3   7 344.593 342.375  12
  -1  -3   6 32994.4 1215.16  11
  -1   3   6 31127.0 1164.93   5
   1  -3  -6 31771.4 1214.06   9
   1  -3  -6 30115.1 1157.82   8
   1   3  -6 30315.6 1176.60  16
  -1   3   6 31983.1 1187.79  12
   1   3  -6 30347.1 1198.63  15
  -1  -3   6 32944.7 1197.95  13
  -1   3   5 1459.58 289.793  12
   1  -3  -5 1258.88 271.209   8
  -1  -3   5 1537.09 290.096  11
   1   3  -5 967.924 230.556  10
   1   3  -5 970.227 221.149   9
   1  -3  -5 1186.47 265.045   9
  -1   3   5 1140.36 228.742   5
  -1  -3   5 1419.61 264.081  12
   1   3  -5 965.762 257.426  15
  -1  -3   5 1128.28 263.306  13
   1   3  -5 1193.82 259.921  16
  -1   3   4 54099.6 1158.07   4
   1   3  -4 55207.3 1222.31  10
   1   3  -4 54290.0 1199.81  16
  -1   3   4 59230.8 1314.15   5
   1   3  -4 56694.9 1050.39   9
   1  -3  -4 56368.7 1267.72   9
   1  -3  -4 57515.0 1289.68   8
   1  -3  -4 57051.7 1154.28   3
  -1  -3   4 58639.4 1264.32  13
  -1  -3   4 57079.5 1109.27  12
   1   3  -4 52743.0 1242.29  15
   1  -3  -3 102406. 1515.48   3
   1   3  -3 104467. 1593.08  10
   1   3  -3 114947. 1548.21  16
   1   3  -3 108072. 1546.91  15
  -1   3   3 103997. 1658.07   5
   1   3  -3 110845. 1229.63   9
   1  -3  -3 102235. 1615.21   9
  -1  -3   3 109959. 1306.23  12
   1  -3  -3 104781. 1613.26   8
   1   3  -3 106231. 1421.98   7
   1  -3  -3 105679. 1292.98  15
  -1   3   3 108727. 1605.92   4
  -1  -3   3 99937.0 1495.27  13
  -1  -3   3 107348. 1430.92   6
  -1  -3   2 9358.57 327.854   3
  -1  -3   2 9038.22 413.308  11
   1   3  -2 9048.22 406.976   7
   1   3  -2 9074.01 427.563  10
   1   3  -2 8815.00 320.101   4
   1   3  -2 8665.43 370.659  16
   1   3  -2 9517.73 400.716  15
  -1  -3   2 9140.73 390.950  14
  -1  -3   2 8422.45 306.532   1
  -1  -3   2 9175.08 254.225  12
  -1  -3   2 8713.12 395.182   6
   1   3  -1 261523. 2059.87  10
   1   3  -1 261261. 2122.46   7
   1   3  -1 268025. 1670.49  15
   1   3  -1 268558. 1911.57   4
   1   3  -1 268977. 1871.42   2
  -1  -3   1 264110. 1840.79   1
   1   3  -1 267847. 1696.62  16
  -1  -3   1 267130. 1696.60  14
  -1  -3   1 266561. 2071.00   6
  -1  -3   1 263313. 2014.00  11
  -1  -3   1 272170. 1919.43   3
  -1  -3   0 229876. 1749.88  11
   1   3   0 231928. 1962.27   7
   1   3   0 233044. 1709.33  10
   1   3   0 232187. 1723.19   5
   1   3   0 232676. 1936.53   2
  -1  -3   0 229338. 1918.64   3
  -1  -3   0 227268. 1557.27   8
  -1  -3   0 232673. 1885.67   1
   1   3   0 229427. 1934.23   4
  -1  -3   0 236054. 1962.39   6
  -1  -3  -1 19351.0 609.403   3
   1   3   1 19409.3 599.956   5
  -1  -3  -1 20637.1 470.448   9
  -1  -3  -1 18363.6 588.148   1
  -1  -3  -1 19698.7 580.907   8
   1   3   1 18660.9 624.354   4
   1   3   1 19557.1 580.905   7
  -1  -3  -1 20137.1 620.770   6
  -1  -3  -2 786.124 175.122   3
   1   3   2 444.778 166.005   5
  -1  -3  -2 205.042 107.369   9
  -1  -3  -2 426.180 137.768   8
   1   3   2 548.329 166.341   4
  -1  -3  -2 600.955 154.534   1
   1   3   2 358.943 133.429   7
   1   3   2 143.826 116.816   2
   1   3   3 17090.2 718.560   5
  -1  -3  -3 15058.9 576.578   9
  -1  -3  -3 15621.9 655.754   8
   1   3   3 15434.6 695.958   2
  -1  -3  -3 15104.8 644.071   1
   1  -4  -8 7246.66 877.007   8
  -1   4   7 2892.78 499.685   5
   1  -4  -7 2555.78 479.709   9
   1  -4  -7 2967.36 521.868   8
  -1   4   7 3644.31 560.292  12
  -1   4   6 331.882 311.826  12
   1  -4  -6 202.516 256.222   8
  -1   4   6-213.932 256.974   5
   1  -4  -6-41.2708 280.854   9
  -1  -4   5 14370.8 765.851  11
   1   4  -5 15500.4 817.759  15
   1   4  -5 16273.0 824.676  10
  -1   4   5 15206.5 798.533   5
   1  -4  -5 15497.8 782.518   9
   1  -4  -5 15782.2 816.691   8
   1   4  -5 15273.9 781.389  16
  -1  -4   5 16453.4 806.825  13
  -1   4   5 17171.1 832.701  12
   1  -4  -4 9387.92 553.281   3
   1   4  -4 8325.66 533.151  10
  -1   4   4 9451.16 608.845   5
   1  -4  -4 9473.00 587.924   9
   1  -4  -4 8238.91 541.593   8
   1   4  -4 8880.12 520.109  16
  -1   4   4 9206.87 557.208   4
   1   4  -4 9090.07 549.025  15
  -1  -4   4 9437.73 544.959  13
  -1  -4   4 9144.09 477.311   6
   1  -4  -3 6560.81 474.727   3
   1   4  -3 5814.70 416.341  10
  -1   4   3 7422.32 529.394   5
   1  -4  -3 7315.78 514.206   8
   1   4  -3 6089.04 371.909  16
   1   4  -3 6139.35 395.936  15
   1   4  -3 6065.92 399.634   7
  -1  -4   3 6326.96 387.842  13
  -1   4   3 6509.02 482.541   4
  -1  -4   3 6011.66 377.836   6
  -1  -4   2 1341.15 192.453   6
  -1  -4   2 1612.30 181.544   1
   1   4  -2 1309.25 197.994  10
   1   4  -2 1413.36 179.906  15
   1   4  -2 1441.53 178.347   2
  -1  -4   2 1325.92 155.823   3
  -1  -4   2 1612.09 211.155  11
   1   4  -2 1496.08 174.130   4
   1   4  -2 1489.81 186.700  16
   1   4  -2 1379.79 199.183   7
  -1  -4   2 1398.02 184.344  13
  -1  -4   1 316943. 2395.57   3
   1   4  -1 330655. 1961.75  15
  -1  -4   1 331751. 2514.83  11
   1   4  -1 330583. 1856.11   5
   1   4  -1 326233. 2534.87  10
   1   4  -1 326535. 2423.33   4
   1   4  -1 330722. 2002.51  16
   1   4  -1 335729. 2462.64   2
  -1  -4   1 332245. 1995.67  14
   1   4  -1 327194. 2695.44   7
  -1  -4   1 333292. 2382.81   1
  -1  -4   1 332270. 1870.29  13
  -1  -4   1 337515. 2649.96   6
  -1  -4   0 309090. 2511.11   3
  -1  -4   0 307900. 2212.44  11
   1   4   0 301547. 2192.02  10
   1   4   0 302303. 2146.93   5
  -1  -4   0 301381. 2048.31   8
   1   4   0 309290. 2525.25   4
   1   4   0 308939. 2492.41   2
  -1  -4   0 307888. 2456.53   1
   1   4   0 306185. 2561.52   7
  -1  -4   0 303575. 2483.29   6
   1   4   1 6499.77 387.564   7
   1   4   1 6594.63 300.480  10
   1   4   1 6828.65 384.986   5
  -1  -4  -1 6779.21 256.447   9
  -1  -4  -1 6434.06 344.226   8
   1   4   1 6393.57 399.806   4
   1   4   1 6122.62 390.256   2
  -1  -4  -1 6436.44 380.952   1
  -1  -4  -1 6757.66 375.538   6
  -1  -4  -1 6725.59 400.628   3
   1   4   2 38190.3 1023.29   5
  -1  -4  -2 36588.9 780.589   9
  -1  -4  -2 35971.8 922.411   8
   1   4   2 34274.6 988.245   4
   1   4   2 34411.1 1003.28   2
  -1  -4  -2 37503.6 984.651   1
   1   4   2 37099.9 946.544   7
  -1  -4  -2 36592.5 989.078   3
   1   4   3 43566.2 1206.52   5
  -1  -4  -3 41652.7 1005.78   9
   1   4   3 40822.8 1230.95   4
  -1  -4  -3 41857.1 1141.14   8
   1   4   3 38434.7 1193.87   2
  -1  -4  -3 43411.5 1150.12   1
  -1  -4  -3 43220.8 1188.35   3
  -1  -4  -4 27245.8 895.950   9
  -1  -4  -4 28667.9 1006.27   8
  -1   5   7 386.750 400.541   5
   1  -5  -7 153.505 335.427   9
   1  -5  -7 522.238 341.984   8
  -1   5   7 616.575 405.959  12
  -1   5   6 7927.72 726.378   5
   1  -5  -6 7504.98 677.982   9
   1  -5  -6 7236.20 683.618   8
  -1   5   6 8337.45 715.823  12
  -1   5   5 1523.48 378.987  12
   1   5  -5 1063.10 364.712  10
   1  -5  -5 1366.61 307.660   3
  -1   5   5 712.887 302.860   5
   1  -5  -5 1486.62 394.270   8
   1   5  -5 830.198 261.456  16
  -1  -5   5 1439.53 324.873  11
  -1  -5   4 1791.41 272.971   6
   1   5  -4 2543.44 361.801  10
  -1   5   4 2956.52 439.554   5
   1  -5  -4 2503.22 366.263   3
   1   5  -4 2109.75 306.947  16
   1  -5  -4 2428.48 372.591   8
   1   5  -4 2419.58 341.319  15
  -1   5   4 2682.81 397.632   4
  -1  -5   4 2032.18 293.395  13
  -1  -5   3 28474.9 942.297   6
   1   5  -3 30868.4 977.033   7
   1   5  -3 30971.5 1003.56  10
   1   5  -3 30447.9 849.408  16
   1   5  -3 29389.7 887.704  15
  -1  -5   3 26904.8 844.359  13
  -1  -5   2 8242.75 409.484   3
  -1  -5   2 8302.35 481.883  11
   1   5  -2 8785.76 512.273  10
  -1  -5   2 8314.40 434.619   1
   1   5  -2 8099.89 413.005   4
   1   5  -2 7475.61 377.015  16
   1   5  -2 8207.47 424.401  15
   1   5  -2 8890.81 516.532   7
  -1  -5   2 8487.17 410.730  14
  -1  -5   2 8650.56 416.970  13
   1   5  -2 9813.25 478.911   2
  -1  -5   2 8719.90 495.561   6
  -1  -5   1 73808.0 1277.03   3
  -1  -5   1 74029.6 1286.58   1
  -1  -5   1 73184.8 1302.26  11
   1   5  -1 80514.7 1480.35   7
   1   5  -1 74076.1 1340.85  10
   1   5  -1 73782.7 1284.51   4
   1   5  -1 74935.2 1333.39   2
  -1  -5   1 77946.5 1421.48   6
   1   5   0 1073.70 205.942   2
  -1  -5   0 1073.45 214.024   6
  -1  -5   0 1320.29 186.177  11
   1   5   0 1392.80 209.238  10
   1   5   0 742.085 152.909   5
  -1  -5   0 950.569 196.258   3
  -1  -5   0 1239.49 179.932   8
   1   5   0 854.696 185.616   7
   1   5   0 851.088 188.872   4
  -1  -5   0 1038.04 186.401   1
   1   5   1 6913.98 456.918   7
   1   5   1 6029.51 398.333   5
  -1  -5  -1 6511.47 394.410   8
   1   5   1 7118.14 472.161   4
   1   5   1 6897.63 460.545   2
  -1  -5  -1 6945.85 438.341   1
  -1  -5  -1 7439.10 444.756   6
  -1  -5  -1 7249.83 475.702   3
   1   5   2 7440.24 562.167   5
   1   5   2 6787.61 495.796   4
   1   5   2 6682.94 513.644   2
   1   5   2 7065.43 474.265   7
  -1  -5  -2 7851.94 478.300   6
  -1  -5  -2 7098.92 497.966   3
  -1  -5  -3 2985.14 358.264   1
   1   5   3 2296.26 339.769   5
  -1  -5  -3 2543.87 332.250   8
   1   5   3 2744.90 386.203   4
  -1  -5  -3 3100.11 372.599   3
   1   5   3 2503.49 392.540   2
   1   5   4 8985.52 646.454   5
   1   5   4 9474.25 666.965   2
  -1  -5  -4 8968.96 640.685   8
  -1  -5  -4 8298.57 599.216   1
  -1   6   6 1392.78 498.689   5
   1   6  -4 6423.25 586.048  10
   1   6  -4 6566.61 511.228  16
  -1  -6   4 5415.42 484.889   6
   1   6  -3 55536.8 1459.60  10
   1   6  -3 57122.9 1476.90   7
  -1  -6   3 56376.2 1440.51   6
  -1  -6   2 756.004 219.985   6
  -1  -6   2 1004.33 217.816  11
  -1  -6   2 722.370 198.613   1
   1   6  -2 831.533 211.213  10
   1   6  -2 783.303 238.041   7
   1   6  -2 527.446 173.601   4
  -1  -6   1 1111.85 231.954   6
  -1  -6   1 1006.51 184.260  11
   1   6  -1 914.436 209.302   2
   1   6  -1 965.743 225.920  10
  -1  -6   1 853.755 197.255   3
  -1  -6   1 1187.29 251.800   1
   1   6  -1 1206.70 297.412   7
   1   6  -1 932.075 208.807   4
  -1  -6   0 57096.9 1315.82   1
  -1  -6   0 53501.5 1276.21   3
  -1  -6   0 56845.4 1157.77  11
   1   6   0 56448.8 1175.25  10
   1   6   0 52023.9 1280.47   4
   1   6   0 57053.0 1377.29   2
   1   6   0 53964.3 1335.17   7
  -1  -6   0 57515.3 1337.08   6
  -1  -6  -1 47490.7 1269.79   3
   1   6   1 44284.0 1261.79   2
   1   6   1 43500.7 1099.00   5
   1   6   1 45271.0 1220.13   7
  -1  -6  -1 45928.4 1108.42   8
   1   6   1 43559.3 1254.33   4
  -1  -6  -1 44851.9 1200.70   1
  -1  -6  -1 48149.7 1251.15   6
   1   6   2 7046.01 519.273   5
   1   6   2 6808.86 556.970   2
   1   6   2 7094.44 549.269   4
  -1  -6  -2 7214.31 492.086   8
   1   6   2 7654.33 543.741   7
  -1  -6  -2 8151.15 546.474   1
  -1  -6  -2 7378.70 510.642   6
  -1  -6  -2 7352.61 548.990   3
   1   6   3 980.074 309.414   2
  -1  -6  -3 1435.80 301.817   3
   1   6   3 913.191 262.974   5
  -1  -6  -3 1210.12 278.832   8
  -1  -6  -3 1422.42 303.117   1
   1   6   3 1319.78 328.612   4
   1   6   4 10781.9 769.279   5
   1   6   4 10953.2 837.460   4
  -1  -6  -4 11353.2 762.688   8
   1   6   4 10791.7 794.080   2
  -1  -6  -4 10652.7 781.580   3
  -1  -6  -4 10012.8 705.843   1
  -1  -7   3 6313.83 549.397  11
   1   7  -3 6367.31 589.840  10
   1   7  -3 5201.63 517.832   7
  -1  -7   3 5690.02 540.641   6
  -1  -7   2 33085.7 1135.78  11
   1   7  -2 34507.5 1162.78  10
   1   7  -2 34029.7 1238.91   7
  -1  -7   2 35572.1 1221.90   6
  -1  -7   1 18897.5 806.509   3
  -1  -7   1 18604.5 795.761  11
   1   7  -1 18195.1 823.939  10
  -1  -7   1 19131.8 840.408   1
   1   7  -1 18164.9 808.834   4
   1   7  -1 19603.5 922.313   7
   1   7  -1 20398.9 911.002   2
  -1  -7   1 19211.9 864.617   6
  -1  -7   0 38668.9 1202.24   3
  -1  -7   0 41430.9 1239.26   1
   1   7   0 38577.4 1257.41   7
   1   7   0 41657.0 1310.12   2
  -1  -7   0 41623.3 1247.64   6
  -1  -7  -1 889.636 249.284   6
   1   7   1 540.671 255.814   2
  -1  -7  -1 740.309 242.231   1
  -1  -7  -1 840.441 242.116   3
   1   7   1 799.406 265.416   7
   1   7   1 462.238 218.687   4
  -1  -7  -2 25413.9 1040.67   1
   1   7   2 25019.1 1000.50   5
   1   7   2 24954.0 1108.78   4
  -1  -7  -2 25452.0 977.884   8
   1   7   2 26696.2 1076.70   7
   1   7   2 25345.6 1113.90   2
  -1  -7  -2 25895.6 1028.28   6
  -1  -7  -2 25393.4 1067.42   3
   1   7   3 62.8558 248.725   2
  -1  -7  -3 452.664 252.145   1
  -1  -7  -3-27.1710 214.530   3
   1   7   3 407.592 293.706   5
  -1  -7  -3-538.338 289.914   8
   1   7   3 180.441 286.791   4
  -1  -7  -4 23023.5 1115.59   1
   1   7   4 23032.9 1149.21   5
   1   7   4 24324.3 1265.46   4
  -1  -7  -4 23755.8 1143.20   8
   1   7   4 21542.6 1207.53   2
  -1  -7  -4 22672.9 1159.37   3
  -1  -8   2 145.012 227.827   6
  -1  -8   2 140.492 226.054  11
   1   8  -2-134.538 259.736   7
  -1  -8   1 434.317 226.567   6
  -1  -8   1 726.579 245.600  11
  -1  -8   1 439.963 255.443   1
  -1  -8   1 940.923 301.538   3
   1   8  -1 659.134 258.910   2
   1   8  -1 505.054 273.812   4
   1   8  -1 482.344 251.942   7
  -1  -8   0 14543.4 826.202   3
  -1  -8   0 14428.8 810.906   1
   1   8   0 14439.5 837.564   4
   1   8   0 15653.5 908.138   7
   1   8   0 15144.8 905.051   2
  -1  -8   0 14536.2 822.907   6
  -1  -8  -1 13974.2 824.558   1
   1   8   1 13711.5 832.288   4
   1   8   1 13826.9 848.796   7
   1   8   1 12345.3 808.313   2
  -1  -8  -1 14429.4 828.158   6
  -1  -8  -1 13979.5 844.987   3
  -1  -8  -2 1649.81 310.518   6
   1   8   2 1604.74 339.695   2
  -1  -8  -2 1075.31 314.125   3
  -1  -8  -2 1851.67 370.844   1
   1   8   2 1712.11 391.316   4
   1   8   2 1975.08 373.632   7
   1   8   3 1115.39 381.843   2
  -1  -8  -3 1091.65 340.169   3
   1   8   3 982.659 344.539   5
  -1  -8  -3 1131.62 301.210   8
  -1  -8  -3 1232.97 337.448   1
   1   8   3 1478.83 376.812   4
   1   8   4 3441.86 586.370   2
  -1  -8  -4 3650.69 560.163   3
   1   8   4 2404.09 461.476   5
  -1  -8  -4 3393.79 491.064   8
  -1  -8  -4 3127.37 496.939   1
   1   8   4 4128.50 640.171   4
   1   9  -1 6445.24 670.351   7
  -1  -9   1 6678.15 659.512   6
  -1  -9   0 65.4791 226.049   6
  -1  -9   0 497.074 297.685   3
   1   9   0 295.826 331.487   2
  -1  -9   0 19.1011 258.668   1
   1   9   0-291.065 317.525   4
   1   9   0-333.007 286.732   7
  -1  -9  -1 211.410 282.391   6
   1   9   1 230.538 332.833   2
  -1  -9  -1-51.6690 276.917   3
  -1  -9  -1-75.5613 263.284   1
   1   9   1 9.20856 303.702   4
   1   9   1 419.426 303.418   7
  -1  -9  -2 107.512 265.323   6
  -1  -9  -2 85.1983 243.005   1
  -1  -9  -2 1.16186 262.907   3
   1   9   2 135.219 313.679   2
   1   9   2 93.3645 302.717   4
   1   9   2-741.892 371.276   7
  -1  -9  -3 364.534 342.687   1
  -1  -9  -3-218.378 303.779   3
   1   9   3 65.5229 379.614   2
   1   9   3 589.780 382.908   4
  -1  -9  -4 777.871 366.313   8
  -1 -10  -1 680.546 372.415   1
  -1 -10  -1 454.033 328.272   3
   1  10   1 576.707 365.193   2
   1  10   2 70.9966 338.903   2
  -1 -10  -2 841.216 340.742   1
   2   0  -8 699.287 376.851   9
   2   0  -8 913.428 369.072  15
   2   0  -8 1881.27 486.603  16
  -2   0   8 982.430 339.013  14
  -2   0   8 1232.04 414.236  13
  -2   0   8 932.141 364.933  12
  -2   0   7 4016.07 497.483  12
   2   0  -7 3929.05 520.422  16
   2   0  -7 4533.75 546.046   9
   2   0  -7 4103.14 499.944  15
  -2   0   7 4180.61 499.371  14
  -2   0   7 4558.33 512.919  13
  -2   0   6 634.544 235.085  12
   2   0  -6 767.950 271.916   9
   2   0  -6 800.911 265.837  16
   2   0  -6 315.903 201.125  15
  -2   0   6 457.398 218.447  14
   2   0  -5 41287.4 1216.93   9
   2   0  -5 37388.8 1117.09  16
   2   0  -5 37439.4 1113.62  15
  -2   0   5 37235.0 1108.43  14
  -2   1   8 1397.04 396.967  12
   2   1  -8 1164.51 351.952   9
   2  -1  -8 603.499 426.740   9
   2   1  -8 91.1120 303.361  16
   2  -1  -8 614.949 359.476  16
   2   1  -8 930.225 337.090  15
  -2  -1   8 1385.98 414.715  14
  -2  -1   8 1026.54 349.674  13
  -2   1   8 1010.08 467.672  13
  -2  -1   8 826.491 357.993  12
  -2  -1   7 3869.99 482.169  12
  -2   1   7 3197.34 471.034  12
   2   1  -7 2949.09 436.098   9
   2  -1  -7 3283.13 475.344   9
   2   1  -7 3451.81 499.096  16
   2  -1  -7 3751.96 481.269  16
   2  -1  -7 3596.06 521.641  15
   2   1  -7 3354.02 449.879  15
  -2   1   7 3585.52 484.108  14
  -2  -1   7 3540.67 500.998  14
  -2  -1   7 4021.06 516.282  13
  -2   1   7 4384.76 552.059  13
   2   1  -6 6698.29 577.702  15
   2   1  -6 6516.07 546.870   9
   2  -1  -6 7141.26 621.561   9
   2   1  -6 6541.47 556.008  16
   2  -1  -6 7169.27 567.822  16
   2  -1  -6 8303.42 637.857  15
  -2  -1   6 7390.15 620.902  14
  -2  -1   6 6858.47 523.374  12
   2   1  -5 19086.5 781.212  10
  -2   1   5 20865.8 781.912   5
   2   1  -5 20911.9 823.332   9
   2   1  -5 18611.5 825.378  16
   2   1  -5 20355.7 874.017  15
   2  -1  -5 19552.2 866.038  15
  -2  -1   5 18570.4 833.220  14
   2   1  -4 8567.49 506.897  10
   2   1  -4 8453.10 499.361  16
   2   1  -4 8740.61 541.864  15
  -2  -1   4 8862.47 527.530  14
   2  -2  -8 1535.70 484.648   9
   2   2  -8 1313.65 397.149  16
   2   2  -8 806.925 352.015  15
  -2  -2   8 1270.92 420.924  14
   2  -2  -7 6634.00 703.948   9
   2   2  -7 5149.52 519.221   9
   2   2  -7 5398.98 608.816  16
   2   2  -7 5548.91 627.261  15
  -2  -2   7 5478.36 599.302  14
  -2  -2   7 5972.69 595.276  13
  -2  -2   7 5656.75 553.562  12
  -2   2   7 7361.29 721.955  12
  -2  -2   6 11992.2 707.033  11
   2   2  -6 11262.0 665.790   9
   2   2  -6 10651.2 731.958  15
  -2  -2   6 11557.4 731.760  14
   2   2  -6 11332.5 730.076  16
  -2  -2   6 11038.6 711.941  13
  -2  -2   6 11221.5 661.895  12
  -2  -2   5 8467.73 557.467  11
   2   2  -5 7363.27 543.005  10
   2   2  -5 8207.15 527.413   9
   2   2  -5 7995.68 561.159  16
   2   2  -5 8174.81 600.838  15
  -2  -2   5 7967.54 554.054  14
  -2  -2   5 8237.57 501.034  12
  -2  -2   4 52911.6 1214.06  11
   2   2  -4 54288.0 1260.29  10
   2   2  -4 50087.5 1201.02  16
   2   2  -4 53680.1 1279.95  15
  -2  -2   4 51313.8 1211.73  14
  -2  -2   3 40567.0 1042.72  11
   2   2  -3 37726.2 1049.90  10
   2   2  -3 40445.9 1063.30  15
   2   3  -8 262.903 345.598  16
   2   3  -8 127.942 330.779  15
   2   3  -7 2792.67 468.809  16
   2   3  -7 2673.16 473.795  15
  -2  -3   7 2960.75 457.997  14
  -2  -3   7 3152.83 505.366  13
  -2  -3   6 415.673 245.951  11
   2   3  -6 415.352 259.326  10
   2   3  -6 78.9729 255.126  16
   2   3  -6 608.701 320.946  15
  -2  -3   6 23.7485 216.620  14
  -2  -3   6 232.479 231.741  13
  -2  -3   5 13132.7 703.357  11
   2   3  -5 12829.3 716.280  10
   2   3  -5 12791.3 702.294  16
   2   3  -5 13816.8 756.228  15
  -2  -3   5 12784.7 689.426  14
  -2  -3   4 2784.11 313.674  11
   2   3  -4 3731.44 401.741  10
   2   3  -4 4067.86 376.526  16
   2   3  -4 3359.32 319.429   7
   2   3  -4 3113.80 355.105  15
  -2  -3   4 3668.87 367.299  14
  -2  -3   3 153963. 1990.53  11
   2   3  -3 155606. 1925.83   7
   2   3  -3 151007. 2089.53  10
   2   3  -3 153449. 1963.13  16
   2   3  -3 161004. 2073.27  15
  -2  -3   3 155976. 1974.82  14
  -2  -4   7 2448.67 418.806  11
   2   4  -7 2317.46 486.259  10
   2   4  -7 1893.55 425.589  16
   2   4  -7 2989.32 506.191  15
  -2  -4   7 2310.15 456.686  14
  -2  -4   7 3067.53 476.832  13
  -2  -4   6 21793.6 1012.26  11
   2   4  -6 20261.7 1006.61  10
   2   4  -6 17963.3 951.647  16
   2   4  -6 19697.1 1043.46  15
  -2  -4   6 20743.4 1016.61  14
  -2  -4   6 21883.3 998.896  13
  -2  -4   5 4553.75 455.426  11
   2   4  -5 3738.17 443.685  10
   2   4  -5 4167.90 435.356  16
   2   4  -5 4303.67 456.120  15
  -2  -4   5 4329.47 449.973  14
  -2  -4   5 4235.56 441.398  13
  -2  -4   4 71311.5 1578.54  11
   2   4  -4 75349.0 1673.51  10
   2   4  -4 70106.7 1499.16  16
   2   4  -4 73698.5 1479.99   7
   2   4  -4 71749.6 1562.78  15
  -2  -4   4 72011.0 1498.28  14
  -2  -4   4 76780.9 1521.24   6
  -2  -4   3 35981.3 1024.96  11
   2   4  -3 38778.8 1119.14  10
   2   4  -3 35923.6 971.244  16
   2   4  -3 37049.5 1034.44   7
   2   4  -3 36270.0 985.145  15
  -2  -4   3 38317.1 1010.85  14
  -2  -4   3 37111.1 1037.30   6
  -2  -4   2 164143. 2076.57  11
   2   4  -2 164033. 2179.49  10
   2   4  -2 161697. 1848.51   2
  -2  -4   2 163062. 1773.28   1
   2   4  -2 167153. 2192.04   7
   2   4  -2 156907. 1892.02  15
  -2  -4   2 160568. 2115.73   6
   2   4  -1 21456.3 800.159  10
   2   4  -1 22083.5 878.936   7
  -2  -4   1 21337.4 828.163   6
  -2  -5   7-69.8282 306.075  11
   2   5  -7 154.665 329.372  10
   2   5  -7-165.288 350.021  16
   2   5  -7 407.951 347.285  15
  -2  -5   7-378.871 315.781  14
  -2  -5   7 310.381 300.865  13
  -2  -5   6 8.08380 245.642  11
   2   5  -6-284.494 347.958  10
   2   5  -6 1022.26 352.268  16
   2   5  -6-88.1557 275.355  15
  -2  -5   6 24.6320 245.474  14
  -2  -5   6 373.651 316.589  13
  -2  -5   5 1599.40 319.711  11
   2   5  -5 1532.79 363.671  10
   2   5  -5 1694.05 334.219  16
   2   5  -5 1671.94 349.384  15
  -2  -5   5 1759.98 351.163  14
  -2  -5   5 1639.11 306.937  13
  -2  -5   4 12333.6 720.502  11
   2   5  -4 12315.7 754.512  10
   2   5  -4 11583.6 631.578  16
   2   5  -4 12248.6 668.817  15
   2   5  -4 10917.1 686.371   7
  -2  -5   4 12083.2 639.846  14
  -2  -5   4 12272.9 643.245  13
  -2  -5   4 11931.9 663.918   6
  -2  -5   3 8682.78 534.066  11
   2   5  -3 8515.04 600.597  10
   2   5  -3 8207.68 489.089  16
   2   5  -3 8862.93 584.270   7
   2   5  -3 8713.91 520.192  15
  -2  -5   3 8426.81 507.327  14
  -2  -5   3 8978.75 566.655   6
  -2  -5   2 3038.26 325.926  11
   2   5  -2 3141.28 350.521  10
   2   5  -2 2922.00 299.221   2
  -2  -5   2 3240.37 297.525   1
   2   5  -2 3143.75 355.115   7
  -2  -5   2 3130.31 332.229   6
   2   5  -1 21710.5 812.142  10
   2   5  -1 21446.7 793.423   2
  -2  -5   1 21626.7 775.778   1
   2   5  -1 22682.4 906.309   7
  -2  -5   1 23796.0 860.678   6
   2   5   0-111.585 178.978  10
  -2  -5   0 142.913 145.985   8
  -2  -5   0 73.5202 159.050   1
   2   5   0-6.10681 176.050   7
   2   5   0 73.1825 168.958   2
  -2  -6   6 236.116 627.410  11
   2   6  -6 3063.03 635.535  15
  -2  -6   5 3520.22 470.779  11
   2   6  -5 3879.95 513.452  10
   2   6  -5 3079.07 443.269  16
   2   6  -5 3675.39 479.829  15
  -2  -6   5 3499.24 466.137  14
  -2  -6   5 3579.91 449.003  13
  -2  -6   4 339.108 229.022   6
  -2  -6   4-11.9808 190.326  11
   2   6  -4-283.481 269.048  10
   2   6  -4 17.4564 210.558  15
  -2  -6   4-8.36649 175.179  14
   2   6  -4 10.0564 241.884   7
  -2  -6   3 12316.7 702.759  11
   2   6  -3 11841.2 741.104  10
   2   6  -3 12276.6 745.135   7
  -2  -6   3 11841.6 681.125   6
  -2  -6   2-427.885 269.497   1
  -2  -6   2-11.5471 181.544   6
  -2  -6   2-215.646 199.685  11
   2   6  -2-214.595 189.243  10
   2   6  -2-383.479 268.183   4
   2   6  -2-663.391 289.302   7
  -2  -6   1 700.026 221.912   6
  -2  -6   1 675.673 208.020  11
   2   6  -1 597.001 224.753  10
  -2  -6   1 921.748 206.856   3
   2   6  -1 756.633 228.777   4
   2   6  -1 749.872 298.230   7
  -2  -6   1 787.228 209.087   1
   2   6  -1 594.696 216.906   2
   2   6   0 5816.98 535.101   4
   2   6   0 5021.30 465.709   2
  -2  -6   0 5419.13 449.751   1
   2   6   0 5146.42 499.601   7
  -2  -6   0 5686.87 478.128   6
  -2  -6   0 5942.72 473.813   3
  -2  -6  -1 14737.4 703.305   8
   2   6   1 13357.0 804.615   2
  -2  -6  -1 14193.7 760.421   1
   2   6   1 13315.6 804.245   7
   2   7  -6 244.870 404.677  10
  -2  -7   5 1282.36 367.618  11
   2   7  -5 1201.62 384.417  10
  -2  -7   4 7022.94 608.952  11
   2   7  -4 6043.67 646.402  10
   2   7  -4 6667.87 646.690   7
  -2  -7   4 5782.65 552.370   6
  -2  -7   3 6656.01 575.699  11
   2   7  -3 6210.92 575.424  10
   2   7  -3 6255.24 590.159   7
  -2  -7   3 6274.45 557.274   6
  -2  -7   2-168.112 197.939   6
  -2  -7   2 219.917 179.216  11
   2   7  -2-245.995 272.683  10
   2   7  -2-94.2991 242.114   7
   2   7  -1 1506.67 305.751   2
  -2  -7   1 1798.61 325.740   6
  -2  -7   1 2405.46 330.077   1
  -2  -7   1 1876.85 333.754  11
   2   7  -1 1831.79 336.948  10
  -2  -7   1 1912.88 308.799   3
   2   7  -1 1455.41 298.811   4
   2   7  -1 1693.13 344.763   7
  -2  -7   0 351.339 188.155   6
  -2  -7   0 273.084 190.399   3
   2   7   0 695.448 259.193   4
   2   7   0 566.737 286.565   7
  -2  -7   0 595.703 237.349   1
   2   7   0 110.070 215.152   2
   2   7   1 15323.0 931.017   4
   2   7   1 15292.7 934.729   2
   2   7   1 15980.9 944.413   7
  -2  -7  -1 15680.4 844.174   1
  -2  -7  -1 16791.5 902.359   3
   2   8  -5 424.689 393.811  10
  -2  -8   4 297.189 277.345   6
  -2  -8   4-0.80176 262.318  11
   2   8  -4-478.777 361.679  10
   2   8  -4-253.915 341.933   7
  -2  -8   3 3212.23 457.625   6
  -2  -8   3 3601.83 444.571  11
   2   8  -3 3483.47 497.827  10
   2   8  -3 3411.85 535.548   7
  -2  -8   2-188.954 226.931   6
  -2  -8   2-60.1851 220.422  11
   2   8  -2-23.1079 292.645  10
   2   8  -2 133.207 285.768   7
   2   8  -1 4.30900 239.254   2
   2   8  -1 426.649 294.668   4
   2   8  -1-29.8307 287.144   7
  -2  -8   1 1012.89 484.998   6
  -2  -8   1 714.873 477.717   3
  -2  -8   0 765.044 283.789   6
   2   8   0 248.575 264.025   2
  -2  -8   0 950.465 311.223   1
  -2  -8   0 638.466 283.509   3
   2   8   0 470.682 251.562   4
   2   8   0 614.081 320.909   7
   2   8   1 4803.36 615.317   2
   2   8   1 4883.20 565.302   4
   2   8   1 4740.69 584.789   7
  -2  -8  -1 6546.94 663.619   6
  -2  -8  -1 6148.35 606.986   3
  -2  -8  -1 5751.01 589.405   1
  -2  -9   4 1461.63 386.812   6
   2   9  -4 1367.53 457.552  10
  -2  -9   3 1690.07 411.200   6
  -2  -9   3 1470.93 367.006  11
   2   9  -3 796.661 299.774  10
   2   9  -3 1309.79 434.204   7
  -2  -9   2-171.149 262.535   6
  -2  -9   2 41.5709 238.915  11
   2   9  -2-344.424 289.984  10
   2   9  -2 675.453 367.740   7
  -2  -9   1 5992.65 587.894   1
   2   9  -1 6558.21 656.861   4
   2   9  -1 5703.61 680.313   7
  -2  -9   1 7615.68 684.722   6
  -2  -9   0 903.859 308.248   6
   2   9   0 308.204 305.878   2
  -2  -9   0 893.996 331.354   3
  -2  -9   0 747.235 317.753   1
   2   9   0 212.680 296.898   4
   2   9   0 992.260 377.833   7
  -2  -9  -1-68.8541 335.731   6
   2   9   1 454.742 377.044   2
  -2  -9  -1 119.980 265.188   3
  -2  -9  -1 220.447 282.771   1
   2   9   1 317.894 335.936   4
   2   9   1-116.661 336.875   7
   2  10  -2 6681.32 821.309   7
   2  10  -1 991.496 432.481   4
  -2 -10   1-99.0249 298.124   1
   2  10  -1 359.547 361.721   7
  -2 -10   0 5286.32 635.062   1
   2  10   0 4681.21 719.017   2
   2  10   0 5368.95 713.065   7
  -2 -10   0 6377.80 716.745   3
   2  10   1 1626.65 533.750   2
   2  10   1 1655.02 429.304   7
  -3  -4   7 2624.72 501.325  13
   3   5  -7 747.175 409.341  15
  -3  -5   7-153.848 367.322  13
  -3  -5   6 1059.46 326.969  11
   3   5  -6 1070.90 389.487  15
  -3  -5   6 1659.91 417.589  13
   3   6  -7 1143.19 484.589  10
   3   6  -7 670.398 442.700  15
  -3  -6   6 167.535 305.431  11
   3   6  -6-378.973 390.554  10
   3   6  -6-318.886 312.375  15
  -3  -6   6 612.836 346.097  13
  -3  -6   5 1131.05 330.557  11
   3   6  -5 1515.77 450.495  10
   3   6  -5 972.720 341.422  15
   3   7  -6 2056.77 535.011  10
  -3  -7   5 4309.41 557.872  11
   3   7  -5 3804.97 620.413  10
  -3  -7   4 1130.58 332.875  11
   3   7  -4 1226.15 407.253  10
   3   8  -5 157.868 399.283  10
   3   8  -4 325.395 387.033  10
   0   0   0    0.00    0.00   0
;
_shelx_hkl_checksum              11545
loop_
_space_group_symop_operation_xyz
'x, y, z'
'-x, y+1/2, -z'
'-x, -y, -z'
'x, -y-1/2, z'
loop_
_atom_site_label
_atom_site_type_symbol
_atom_site_fract_x
_atom_site_fract_y
_atom_site_fract_z
_atom_site_U_iso_or_equiv
_atom_site_adp_type
_atom_site_occupancy
_atom_site_site_symmetry_order
_atom_site_calc_flag
_atom_site_refinement_flags_posn
_atom_site_refinement_flags_adp
_atom_site_refinement_flags_occupancy
_atom_site_disorder_assembly
_atom_site_disorder_group
C3 C 0.6017(15) 0.2500 0.2772(6) 0.039(4) Uani 1 2 d S TU P . .
C5 C 0.7485(12) 0.3950(3) 0.2521(4) 0.065(3) Uani 1 1 d D . . . .
H5A H 0.680(16) 0.485(4) 0.284(5) 0.097 Uiso 1 1 d R . . . .
H5B H 0.750(13) 0.404(3) 0.113(6) 0.097 Uiso 1 1 d R . . . .
H5C H 0.911(6) 0.389(4) 0.353(5) 0.097 Uiso 1 1 d DR . . . .
C4 C 0.346(2) 0.2500 0.1192(8) 0.064(6) Uani 1 2 d DS T P . .
H4A H 0.257(11) 0.343(4) 0.137(6) 0.096 Uiso 1 1 d DR . . . .
C2 C 0.5855(17) 0.2500 0.4937(6) 0.049(5) Uani 1 2 d DS TU P . .
C1 C 0.818(3) 0.2500 0.6703(8) 0.075(6) Uani 1 2 d DS T P . .
H1A H 0.80(3) 0.202(5) 0.791(11) 0.112 Uiso 0.5 1 d DR . . A -1
H1B H 0.80(3) 0.354(5) 0.716(12) 0.112 Uiso 0.5 1 d DR . . B -1
H1C H 0.951(12) 0.196(8) 0.639(13) 0.112 Uiso 0.5 1 d DR . . C -1
O1 O 0.3821(19) 0.2500 0.5215(7) 0.084(5) Uani 1 2 d DS TU P . .
H4B H 0.370(15) 0.2500 -0.023(7) 0.073(11) Uiso 1 2 d S T P . .
loop_
_atom_site_aniso_label
_atom_site_aniso_U_11
_atom_site_aniso_U_22
_atom_site_aniso_U_33
_atom_site_aniso_U_23
_atom_site_aniso_U_13
_atom_site_aniso_U_12
C3 0.028(13) 0.0428(19) 0.042(2) 0.000 0.006(5) 0.000
C5 0.093(11) 0.0455(15) 0.0631(17) 0.0037(10) 0.035(3) -0.0048(16)
C4 0.046(19) 0.081(3) 0.057(4) 0.000 0.005(7) 0.000
C2 0.050(14) 0.0482(17) 0.053(3) 0.000 0.021(5) 0.000
C1 0.06(2) 0.111(4) 0.039(3) 0.000 0.001(7) 0.000
O1 0.062(14) 0.125(3) 0.077(3) 0.000 0.040(5) 0.000
loop_
_atom_type_symbol
_atom_type_description
_atom_type_scat_dispersion_real
_atom_type_scat_dispersion_imag
_atom_type_scat_source
C C 0.0033 0.0016 'International Tables Vol C Tables 4.2.6.8 and 6.1.1.4'
H H 0.0000 0.0000 'International Tables Vol C Tables 4.2.6.8 and 6.1.1.4'
O O 0.0106 0.0060 'International Tables Vol C Tables 4.2.6.8 and 6.1.1.4'
loop_
_citation_id
_citation_doi
_citation_year
1 10.1021/acs.cgd.5b01156 2015
loop_
_geom_angle_atom_site_label_1
_geom_angle_atom_site_label_2
_geom_angle_atom_site_label_3
_geom_angle
_geom_angle_site_symmetry_1
_geom_angle_site_symmetry_3
C5 C3 C5 108.0(6) . 4_565
C4 C3 C5 110.6(3) . .
C4 C3 C5 110.6(3) . 4_565
C2 C3 C5 108.0(3) . 4_565
C2 C3 C5 108.0(3) . .
C2 C3 C4 111.4(6) . .
C1 C2 C3 119.3(8) . .
O1 C2 C3 119.8(7) . .
O1 C2 C1 120.9(5) . .
loop_
_geom_bond_atom_site_label_1
_geom_bond_atom_site_label_2
_geom_bond_distance
_geom_bond_site_symmetry_2
C3 C5 1.535(6) 4_565
C3 C5 1.535(6) .
C3 C4 1.520(11) .
C3 C2 1.516(5) .
C2 C1 1.492(14) .
C2 O1 1.228(11) .
loop_
_geom_torsion_atom_site_label_1
_geom_torsion_atom_site_label_2
_geom_torsion_atom_site_label_3
_geom_torsion_atom_site_label_4
_geom_torsion
_geom_torsion_site_symmetry_1
_geom_torsion_site_symmetry_2
_geom_torsion_site_symmetry_3
_geom_torsion_site_symmetry_4
C5 C3 C2 C1 -58.3(4) . . . .
C5 C3 C2 C1 58.3(4) 4_565 . . .
C5 C3 C2 O1 121.7(4) . . . .
C5 C3 C2 O1 -121.7(4) 4_565 . . .
C4 C3 C2 C1 180.000(3) . . . .
C4 C3 C2 O1 0.000(3) . . . .
