#------------------------------------------------------------------------------
#$Date: 2019-11-17 06:14:30 +0200 (Sun, 17 Nov 2019) $
#$Revision: 228357 $
#$URL: file:///home/coder/svn-repositories/cod/cif/7/12/17/7121743.cif $
#------------------------------------------------------------------------------
#
# This file is available in the Crystallography Open Database (COD),
# http://www.crystallography.net/
#
# All data on this site have been placed in the public domain by the
# contributors.
#
data_7121743
loop_
_publ_author_name
'Alimi, Lukman O.'
'van Heerden, Dewald P.'
'Lama, Prem'
'Smith, Vincent J.'
'Barbour, Leonard J.'
_publ_section_title
;
 Reversible thermosalience of 4-aminobenzonitrile.
;
_journal_issue                   48
_journal_name_full
'Chemical communications (Cambridge, England)'
_journal_page_first              6208
_journal_page_last               6211
_journal_paper_doi               10.1039/c8cc03636e
_journal_volume                  54
_journal_year                    2018
_chemical_formula_sum            'C7 H6 N2'
_chemical_formula_weight         118.14
_chemical_name_common            4-aminobenzonitrile
_chemical_name_systematic        4-aminobenzonitrile
_space_group_crystal_system      monoclinic
_space_group_IT_number           14
_space_group_name_Hall           '-P 2ybc'
_space_group_name_H-M_alt        'P 1 21/c 1'
_symmetry_space_group_name_Hall  '-P 2ybc'
_symmetry_space_group_name_H-M   'P 1 21/c 1'
_atom_sites_solution_hydrogens   mixed
_audit_creation_method           SHELXL-2018/3
_audit_update_record
;
2018-05-01 deposited with the CCDC.
2018-05-24 downloaded from the CCDC.
;
_cell_angle_alpha                90
_cell_angle_beta                 101.968(2)
_cell_angle_gamma                90
_cell_formula_units_Z            4
_cell_length_a                   7.3002(5)
_cell_length_b                   5.5022(3)
_cell_length_c                   16.0771(11)
_cell_measurement_reflns_used    4100
_cell_measurement_temperature    260(2)
_cell_measurement_theta_max      26.00
_cell_measurement_theta_min      2.59
_cell_volume                     631.73(7)
_computing_cell_refinement       'Bruker SAINT'
_computing_data_collection       'Bruker APEX2'
_computing_data_reduction        'Bruker SAINT'
_computing_molecular_graphics    'Bruker SHELXTL'
_computing_publication_material  'Bruker SHELXTL'
_computing_structure_refinement  'SHELXL-2018/3 (Sheldrick, 2018)'
_computing_structure_solution    'SHELXS-97 (Sheldrick 2008)'
_diffrn_ambient_temperature      260(2)
_diffrn_measured_fraction_theta_full 0.989
_diffrn_measured_fraction_theta_max 0.990
_diffrn_measurement_device_type  'Bruker APEX-II CCD'
_diffrn_measurement_method       '\f and \w scans'
_diffrn_radiation_type           MoK\a
_diffrn_radiation_wavelength     0.71073
_diffrn_reflns_av_R_equivalents  0.0314
_diffrn_reflns_av_unetI/netI     0.0169
_diffrn_reflns_Laue_measured_fraction_full 0.989
_diffrn_reflns_Laue_measured_fraction_max 0.990
_diffrn_reflns_limit_h_max       8
_diffrn_reflns_limit_h_min       -8
_diffrn_reflns_limit_k_max       6
_diffrn_reflns_limit_k_min       -6
_diffrn_reflns_limit_l_max       19
_diffrn_reflns_limit_l_min       -19
_diffrn_reflns_number            9862
_diffrn_reflns_point_group_measured_fraction_full 0.989
_diffrn_reflns_point_group_measured_fraction_max 0.990
_diffrn_reflns_theta_full        25.000
_diffrn_reflns_theta_max         25.349
_diffrn_reflns_theta_min         3.923
_exptl_absorpt_coefficient_mu    0.078
_exptl_absorpt_correction_T_max  0.988
_exptl_absorpt_correction_T_min  0.955
_exptl_absorpt_correction_type   multi-scan
_exptl_absorpt_process_details   SADABS
_exptl_crystal_colour            Colourless
_exptl_crystal_density_diffrn    1.242
_exptl_crystal_description       Rectangular
_exptl_crystal_F_000             248
_exptl_crystal_size_max          0.61
_exptl_crystal_size_mid          0.42
_exptl_crystal_size_min          0.14
_exptl_transmission_factor_max   0.988
_exptl_transmission_factor_min   0.955
_refine_diff_density_max         0.105
_refine_diff_density_min         -0.119
_refine_diff_density_rms         0.022
_refine_ls_extinction_method     none
_refine_ls_goodness_of_fit_ref   1.047
_refine_ls_hydrogen_treatment    mixed
_refine_ls_matrix_type           full
_refine_ls_number_parameters     90
_refine_ls_number_reflns         1146
_refine_ls_number_restraints     2
_refine_ls_restrained_S_all      1.059
_refine_ls_R_factor_all          0.0475
_refine_ls_R_factor_gt           0.0388
_refine_ls_shift/su_max          0.002
_refine_ls_shift/su_mean         0.000
_refine_ls_structure_factor_coef Fsqd
_refine_ls_weighting_details
'w=1/[\s^2^(Fo^2^)+(0.0476P)^2^+0.0975P] where P=(Fo^2^+2Fc^2^)/3'
_refine_ls_weighting_scheme      calc
_refine_ls_wR_factor_gt          0.0981
_refine_ls_wR_factor_ref         0.1053
_reflns_Friedel_coverage         0.000
_reflns_number_gt                962
_reflns_number_total             1146
_reflns_threshold_expression     'I > 2\s(I)'
_cod_data_source_file            c8cc03636e6.cif
_cod_data_source_block           ABN_260K
_cod_depositor_comments
;
The following automatic conversions were performed:

'_exptl_absorpt_correction_type' value 'Multi-scan' changed to
'multi-scan' according to
/home/data/users/saulius/crontab/automatic-downloads/rss-feeds/RSC/lib/dictionaries/cif_core.dic
dictionary named 'cif_core.dic' version 2.4.2 from 2011-04-26.

Automatic conversion script
Id: cif_fix_values 4973 2017-02-22 13:04:09Z antanas 

 Adding full bibliography for 7121738--7121749.cif.
;
_cod_database_code               7121743
_shelx_shelxl_version_number     2018/3
_shelx_space_group_comment
;
The symmetry employed for this shelxl refinement is uniquely defined
by the following loop, which should always be used as a source of
symmetry information in preference to the above space-group names.
They are only intended as comments.
;
_shelx_res_file
;
TITL 260K in P2(1)/c
    C:\Users\lukman\Desktop\CS_LUK~1\ABN_CH~1\ABN_260K\ABN_260K_CIF.res
    created by SHELXL-2018/3 at 12:11:57 on 23-Apr-2018
CELL 0.71073 7.3002 5.5022 16.0771 90.000 101.968 90.000
ZERR 4.0000 0.0005 0.0003 0.0011 0.000 0.002 0.000
LATT 1
SYMM -X, 0.5+Y, 0.5-Z
SFAC C H N
UNIT 28 24 8
BOND
DFIX 1.02 0.01 N1 H1B
DFIX 1.02 0.01 N1 H1A
ACTA 50
FMAP 2 1 53
PLAN 20 0 0
TEMP -13
L.S. 4
WGHT    0.047600    0.097500
FVAR       0.80729
C5    1    0.828900    0.602488    0.573498    11.00000    0.05386    0.05206 =
         0.05932    0.00817    0.01217   -0.00040
AFIX  43
H5    2    0.878429    0.664535    0.529057    11.00000   -1.20000
AFIX   0
C4    1    0.729380    0.384850    0.562863    11.00000    0.04689    0.05258 =
         0.05577   -0.00083    0.00647   -0.00012
C2    1    0.677501    0.420072    0.704657    11.00000    0.05120    0.05820 =
         0.06148    0.00138    0.01640   -0.00656
AFIX  43
H2    2    0.625622    0.358981    0.748536    11.00000   -1.20000
AFIX   0
C1    1    0.779170    0.637047    0.716475    11.00000    0.04289    0.04958 =
         0.06000   -0.00199    0.00761    0.00224
C3    1    0.653404    0.296620    0.629421    11.00000    0.05001    0.05317 =
         0.06751   -0.00254    0.01175   -0.01035
AFIX  43
H3    2    0.585598    0.152320    0.622660    11.00000   -1.20000
AFIX   0
N1    3    0.803769    0.757415    0.792307    11.00000    0.07135    0.06868 =
         0.06724   -0.01516    0.01853   -0.01047
C6    1    0.854230    0.725690    0.649097    11.00000    0.05224    0.04312 =
         0.06906    0.00162    0.01051   -0.00395
AFIX  43
H6    2    0.922113    0.869931    0.655698    11.00000   -1.20000
AFIX   0
C7    1    0.712426    0.247174    0.486158    11.00000    0.05977    0.06714 =
         0.06089   -0.00267    0.01017   -0.00911
N2    3    0.704106    0.132213    0.425965    11.00000    0.09147    0.09245 =
         0.06985   -0.01956    0.02153   -0.02180
H1B   2    0.763496    0.679648    0.840388    11.00000    0.08875
H1A   2    0.879545    0.906660    0.800592    11.00000    0.10731
HKLF 4




REM  260K in P2(1)/c
REM wR2 = 0.1053, GooF = S = 1.047, Restrained GooF = 1.059 for all data
REM R1 = 0.0388 for 962 Fo > 4sig(Fo) and 0.0475 for all 1146 data
REM 90 parameters refined using 2 restraints

END

WGHT      0.0475      0.0976

REM Highest difference peak  0.105,  deepest hole -0.119,  1-sigma level  0.022
Q1    1   0.7584  0.7016  0.6017  11.00000  0.05    0.10
Q2    1   0.7663  0.7295  0.6769  11.00000  0.05    0.10
Q3    1   0.7554  0.2971  0.6029  11.00000  0.05    0.10
Q4    1   0.8828  0.6406  0.6978  11.00000  0.05    0.09
Q5    1   0.7199  0.7487  0.7423  11.00000  0.05    0.09
Q6    1   0.6359  0.0853  0.3633  11.00000  0.05    0.08
Q7    1   0.6347  0.3843  0.5789  11.00000  0.05    0.08
Q8    1   0.8375  0.4382  0.5795  11.00000  0.05    0.08
Q9    1   0.7153  0.5308  0.5576  11.00000  0.05    0.08
Q10   1   0.7998  0.4710  0.7179  11.00000  0.05    0.08
Q11   1   0.6832  0.5764  0.6981  11.00000  0.05    0.08
Q12   1   0.9264  0.5935  0.6241  11.00000  0.05    0.08
Q13   1   0.5939  0.4234  0.6489  11.00000  0.05    0.07
Q14   1   0.8812  0.6546  0.7781  11.00000  0.05    0.07
Q15   1   0.7570  0.7174  0.8219  11.00000  0.05    0.07
Q16   1   0.7033  0.2856  0.7762  11.00000  0.05    0.06
Q17   1   0.8316  0.4238  0.7335  11.00000  0.05    0.06
Q18   1   0.9689  0.6124  0.5354  11.00000  0.05    0.06
Q19   1   0.8148  0.1447  0.4773  11.00000  0.05    0.06
Q20   1   0.7862  0.9091  0.7785  11.00000  0.05    0.06
;
_shelx_res_checksum              13642
loop_
_space_group_symop_operation_xyz
'x, y, z'
'-x, y+1/2, -z+1/2'
'-x, -y, -z'
'x, -y-1/2, z-1/2'
loop_
_atom_site_label
_atom_site_type_symbol
_atom_site_fract_x
_atom_site_fract_y
_atom_site_fract_z
_atom_site_U_iso_or_equiv
_atom_site_adp_type
_atom_site_occupancy
_atom_site_site_symmetry_order
_atom_site_calc_flag
_atom_site_refinement_flags_posn
_atom_site_refinement_flags_adp
C5 C 0.82890(17) 0.6025(2) 0.57350(8) 0.0550(4) Uani 1 1 d . .
H5 H 0.878429 0.664535 0.529057 0.066 Uiso 1 1 calc R U
C4 C 0.72938(17) 0.3848(2) 0.56286(8) 0.0524(4) Uani 1 1 d . .
C2 C 0.67750(17) 0.4201(2) 0.70466(8) 0.0563(4) Uani 1 1 d . .
H2 H 0.625622 0.358981 0.748536 0.068 Uiso 1 1 calc R U
C1 C 0.77917(16) 0.6370(2) 0.71647(8) 0.0513(3) Uani 1 1 d . .
C3 C 0.65340(17) 0.2966(2) 0.62942(8) 0.0570(4) Uani 1 1 d . .
H3 H 0.585598 0.152320 0.622660 0.068 Uiso 1 1 calc R U
N1 N 0.80377(18) 0.7574(2) 0.79231(8) 0.0685(4) Uani 1 1 d D .
C6 C 0.85423(18) 0.7257(2) 0.64910(8) 0.0551(4) Uani 1 1 d . .
H6 H 0.922113 0.869931 0.655698 0.066 Uiso 1 1 calc R U
C7 C 0.71243(19) 0.2472(3) 0.48616(9) 0.0629(4) Uani 1 1 d . .
N2 N 0.7041(2) 0.1322(3) 0.42596(8) 0.0839(5) Uani 1 1 d . .
H1B H 0.763(2) 0.680(3) 0.8404(8) 0.089(5) Uiso 1 1 d D .
H1A H 0.880(2) 0.907(2) 0.8006(11) 0.107(6) Uiso 1 1 d D .
loop_
_atom_site_aniso_label
_atom_site_aniso_U_11
_atom_site_aniso_U_22
_atom_site_aniso_U_33
_atom_site_aniso_U_23
_atom_site_aniso_U_13
_atom_site_aniso_U_12
C5 0.0539(7) 0.0521(7) 0.0593(8) 0.0082(6) 0.0122(6) -0.0004(6)
C4 0.0469(7) 0.0526(7) 0.0558(7) -0.0008(6) 0.0065(5) -0.0001(6)
C2 0.0512(7) 0.0582(8) 0.0615(8) 0.0014(6) 0.0164(6) -0.0066(6)
C1 0.0429(6) 0.0496(7) 0.0600(7) -0.0020(6) 0.0076(5) 0.0022(5)
C3 0.0500(7) 0.0532(7) 0.0675(8) -0.0025(6) 0.0117(6) -0.0104(6)
N1 0.0714(8) 0.0687(8) 0.0672(8) -0.0152(6) 0.0185(6) -0.0105(6)
C6 0.0522(7) 0.0431(7) 0.0691(8) 0.0016(6) 0.0105(6) -0.0039(5)
C7 0.0598(8) 0.0671(9) 0.0609(8) -0.0027(7) 0.0102(6) -0.0091(7)
N2 0.0915(10) 0.0924(10) 0.0699(8) -0.0196(7) 0.0215(7) -0.0218(8)
loop_
_atom_type_symbol
_atom_type_description
_atom_type_scat_dispersion_real
_atom_type_scat_dispersion_imag
_atom_type_scat_source
C C 0.0033 0.0016 'International Tables Vol C Tables 4.2.6.8 and 6.1.1.4'
H H 0.0000 0.0000 'International Tables Vol C Tables 4.2.6.8 and 6.1.1.4'
N N 0.0061 0.0033 'International Tables Vol C Tables 4.2.6.8 and 6.1.1.4'
loop_
_geom_angle_atom_site_label_1
_geom_angle_atom_site_label_2
_geom_angle_atom_site_label_3
_geom_angle
C6 C5 C4 120.35(12)
C3 C4 C5 119.13(12)
C3 C4 C7 120.09(12)
C5 C4 C7 120.72(11)
C3 C2 C1 120.81(12)
N1 C1 C2 120.21(12)
N1 C1 C6 121.45(12)
C2 C1 C6 118.34(11)
C2 C3 C4 120.59(12)
C5 C6 C1 120.78(12)
N2 C7 C4 177.65(16)
loop_
_geom_bond_atom_site_label_1
_geom_bond_atom_site_label_2
_geom_bond_distance
C5 C6 1.3703(17)
C5 C4 1.3927(18)
C4 C3 1.3909(17)
C4 C7 1.4306(18)
C2 C3 1.3664(17)
C2 C1 1.3978(18)
C1 N1 1.3662(17)
C1 C6 1.3992(18)
C7 N2 1.1471(17)
