#------------------------------------------------------------------------------
#$Date: 2016-03-26 17:04:46 +0200 (Sat, 26 Mar 2016) $
#$Revision: 180372 $
#$URL: svn://www.crystallography.net/cod/cif/7/20/41/7204118.cif $
#------------------------------------------------------------------------------
#
# This file is available in the Crystallography Open Database (COD),
# http://www.crystallography.net/
#
# All data on this site have been placed in the public domain by the
# contributors.
#
data_7204118
loop_
_publ_author_name
'Batsanov, Andrei S.'
'Bryce, Martin R.'
'Chesney, Antony'
'Howard, Judith A. K.'
'John, Derek E.'
'Moore, Adrian J.'
'Wood, Clare L.'
'Gershtenman, Hagit'
'Becker, James Y.'
'Khodorkovsky, Vladimir Y.'
'Ellern, Arkady'
'Bernstein, Joel'
'Perepichka, Igor F.'
'Rotello, Vincent'
'Gray, Mark'
'Cuello, Alejandro O.'
_publ_section_title
;
 Synthesis and crystal engineering of new halogenated
 tetrathiafulvalene (TTF) derivatives and their charge transfer
 complexes and radical ion salts
;
_journal_issue                   9
_journal_name_full               'Journal of Materials Chemistry'
_journal_page_first              2181
_journal_paper_doi               10.1039/b101866n
_journal_volume                  11
_journal_year                    2001
_chemical_formula_sum            'C9 H9 Br S4'
_chemical_formula_weight         325.31
_chemical_melting_point          447.6(5)
_chemical_name_systematic        4-bromo-4',5,5'-trimethyltetrathiafulvalene
_space_group_IT_number           2
_symmetry_cell_setting           triclinic
_symmetry_space_group_name_Hall  '-P 1'
_symmetry_space_group_name_H-M   'P -1'
_atom_sites_solution_hydrogens   geom
_atom_sites_solution_primary     direct
_atom_sites_solution_secondary   difmap
_audit_creation_method           SHELXL
_cell_angle_alpha                107.70(2)
_cell_angle_beta                 103.17(1)
_cell_angle_gamma                95.81(1)
_cell_formula_units_Z            1
_cell_length_a                   6.033(2)
_cell_length_b                   6.830(1)
_cell_length_c                   7.862(4)
_cell_measurement_reflns_used    413
_cell_measurement_temperature    150(2)
_cell_measurement_theta_max      27.6
_cell_measurement_theta_min      10.4
_cell_volume                     295.38(19)
_computing_cell_refinement       'Bruker SMART'
_computing_data_collection       'Bruker SMART'
_computing_data_reduction        'Bruker SAINT'
_computing_molecular_graphics    SHELXTL
_computing_publication_material  SHELXTL
_computing_structure_refinement  'SHELXL-93 (Sheldrick, 1993)'
_computing_structure_solution    'SHELXS-86 (Sheldrick, 1990)'
_diffrn_ambient_temperature      150(2)
_diffrn_measurement_device       'SMART 1K CCD area detector'
_diffrn_measurement_method       '\w scans'
_diffrn_radiation_monochromator  graphite
_diffrn_radiation_source         'fine-focus sealed tube'
_diffrn_radiation_type           MoK\a
_diffrn_radiation_wavelength     0.71073
_diffrn_reflns_av_R_equivalents  0.0453
_diffrn_reflns_av_sigmaI/netI    0.0515
_diffrn_reflns_limit_h_max       8
_diffrn_reflns_limit_h_min       -4
_diffrn_reflns_limit_k_max       9
_diffrn_reflns_limit_k_min       -9
_diffrn_reflns_limit_l_max       9
_diffrn_reflns_limit_l_min       -10
_diffrn_reflns_number            2415
_diffrn_reflns_theta_max         28.98
_diffrn_reflns_theta_min         2.83
_diffrn_standards_decay_%        0.6
_diffrn_standards_number         0
_exptl_absorpt_coefficient_mu    4.143
_exptl_absorpt_correction_T_max  0.8544
_exptl_absorpt_correction_T_min  0.4776
_exptl_absorpt_correction_type   integration
_exptl_absorpt_process_details   'SHELXTL (XPREP,1997)'
_exptl_crystal_colour            orange
_exptl_crystal_density_diffrn    1.829
_exptl_crystal_description       plate
_exptl_crystal_F_000             162
_exptl_crystal_size_max          0.25
_exptl_crystal_size_mid          0.15
_exptl_crystal_size_min          0.04
_refine_diff_density_max         0.479
_refine_diff_density_min         -0.680
_refine_diff_density_rms         0.130
_refine_ls_extinction_method     none
_refine_ls_goodness_of_fit_all   1.173
_refine_ls_goodness_of_fit_obs   1.173
_refine_ls_hydrogen_treatment    constr
_refine_ls_matrix_type           full
_refine_ls_number_parameters     74
_refine_ls_number_reflns         1481
_refine_ls_number_restraints     2
_refine_ls_restrained_S_all      1.358
_refine_ls_restrained_S_obs      1.175
_refine_ls_R_factor_all          0.0783
_refine_ls_R_factor_obs          0.0556
_refine_ls_shift/esd_max         -0.022
_refine_ls_shift/esd_mean        0.002
_refine_ls_structure_factor_coef Fsqd
_refine_ls_weighting_details
'w=1/[\s^2^(Fo^2^)+(0.0351P)^2^+0.7877P] where P=(Fo^2^+2Fc^2^)/3'
_refine_ls_weighting_scheme      calc
_refine_ls_wR_factor_all         0.1555
_refine_ls_wR_factor_obs         0.1197
_reflns_number_observed          1223
_reflns_number_total             1533
_reflns_observed_criterion       >2sigma(I)
_cod_data_source_file            b101866n.txt
_cod_data_source_block           6
_cod_depositor_comments
;
The following automatic conversions were performed:
'_symmetry_cell_setting' value 'Triclinic' changed to 'triclinic'
according to '/home/adriana/struct/CIF-dictionaries/cif_core.dic'
dictionary named 'cif_core.dic' version 2.4.1 from 2010-06-29.

Automatic conversion script
Id: cif_fix_enum 1555 2011-01-17 13:19:09Z saulius 

The following automatic conversions were performed:

'_chemical_melting_point' value '174--175\% C' was changed to
'447.6(5)' - it was converted from degrees Celsius(C) to Kelvins(K),
the average value was taken and precision was estimated.

Automatic conversion script
Id: cif_fix_values 1569 2011-02-09 13:29:24Z adriana 

The following automatic conversions were performed:

'_refine_ls_weighting_scheme' value 'calc
w=1/[\s^2^(Fo^2^)+(0.0351P)^2^+0.7877P] where P=(Fo^2^+2Fc^2^)/3' was
changed to 'calc'. New tag '_refine_ls_weighting_details' was
created. The value of the new tag was set to
'w=1/[\s^2^(Fo^2^)+(0.0351P)^2^+0.7877P] where P=(Fo^2^+2Fc^2^)/3'.

Automatic conversion script
Id: cif_fix_values 3143 2015-03-26 13:38:13Z robertas 
;
_cod_original_cell_volume        295.4(2)
_cod_original_sg_symbol_H-M      P-1
_cod_database_code               7204118
loop_
_symmetry_equiv_pos_as_xyz
'x, y, z'
'-x, -y, -z'
loop_
_atom_site_aniso_label
_atom_site_aniso_U_11
_atom_site_aniso_U_22
_atom_site_aniso_U_33
_atom_site_aniso_U_23
_atom_site_aniso_U_13
_atom_site_aniso_U_12
Br2 0.0161(11) 0.0331(14) 0.0323(15) 0.0075(9) -0.0044(9) -0.0021(9)
Br3 0.0194(11) 0.0371(14) 0.0353(14) 0.0186(10) 0.0024(8) 0.0114(10)
S1 0.0168(4) 0.0238(5) 0.0278(5) 0.0070(4) 0.0003(3) 0.0039(3)
S2 0.0168(4) 0.0262(5) 0.0326(5) 0.0117(4) 0.0014(4) 0.0047(3)
C1 0.015(2) 0.024(2) 0.024(2) 0.0101(14) 0.0044(13) 0.0034(13)
C2 0.020(2) 0.032(2) 0.018(2) 0.0084(15) 0.0046(13) 0.0072(14)
C3 0.015(2) 0.032(2) 0.024(2) 0.010(2) 0.0020(14) 0.0045(14)
loop_
_atom_site_label
_atom_site_type_symbol
_atom_site_fract_x
_atom_site_fract_y
_atom_site_fract_z
_atom_site_U_iso_or_equiv
_atom_site_thermal_displace_type
_atom_site_occupancy
_atom_site_calc_flag
_atom_site_refinement_flags
_atom_site_disorder_group
Br2 Br 0.2108(7) 0.2062(7) 0.0913(6) 0.0304(10) Uani 0.25 d P 2
Br3 Br 0.3197(6) 0.7275(6) 0.1840(6) 0.0295(8) Uani 0.25 d P 1
S1 S 0.69554(15) 0.25752(15) 0.32587(14) 0.0242(2) Uani 1 d . .
S2 S 0.7955(2) 0.7152(2) 0.40385(14) 0.0256(3) Uani 1 d . .
C1 C 0.8942(6) 0.4941(6) 0.4431(5) 0.0206(7) Uani 1 d . .
C2 C 0.4706(6) 0.3719(6) 0.2315(5) 0.0230(7) Uani 1 d D .
C3 C 0.5163(6) 0.5780(6) 0.2675(5) 0.0242(8) Uani 1 d D .
C12 C 0.2403(24) 0.2204(27) 0.1074(24) 0.037(5) Uiso 0.75 d PD 1
H121 H 0.1844(48) 0.1397(57) 0.1780(33) 0.055 Uiso 0.75 d PR 1
H122 H 0.2680(30) 0.1248(55) -0.0039(40) 0.055 Uiso 0.75 d PR 1
H123 H 0.1239(35) 0.3009(27) 0.0709(57) 0.055 Uiso 0.75 d PR 1
C13 C 0.3493(24) 0.7137(24) 0.1973(22) 0.035(4) Uiso 0.75 d PD 2
H131 H 0.3374(65) 0.8306(47) 0.3035(22) 0.053 Uiso 0.75 d PR 2
H132 H 0.1939(31) 0.6279(30) 0.1317(58) 0.053 Uiso 0.75 d PR 2
H133 H 0.4074(47) 0.7713(63) 0.1115(54) 0.053 Uiso 0.75 d PR 2
loop_
_atom_type_symbol
_atom_type_description
_atom_type_scat_dispersion_real
_atom_type_scat_dispersion_imag
_atom_type_scat_source
C C 0.0033 0.0016 'International Tables Vol C Tables 4.2.6.8 and 6.1.1.4'
H H 0.0000 0.0000 'International Tables Vol C Tables 4.2.6.8 and 6.1.1.4'
S S 0.1246 0.1234 'International Tables Vol C Tables 4.2.6.8 and 6.1.1.4'
Br Br -0.2901 2.4595 'International Tables Vol C Tables 4.2.6.8 and 6.1.1.4'
loop_
_exptl_crystal_face_index_h
_exptl_crystal_face_index_k
_exptl_crystal_face_index_l
_exptl_crystal_face_perp_dist
0.00 0.00 1.00 0.0200
0.00 0.00 -1.00 0.0200
0.00 -1.00 0.00 0.0500
-2.00 2.00 1.00 0.0800
0.00 1.00 0.00 0.0800
1.00 0.00 0.00 0.1200
loop_
_geom_angle_atom_site_label_1
_geom_angle_atom_site_label_2
_geom_angle_atom_site_label_3
_geom_angle
_geom_angle_site_symmetry_1
_geom_angle_site_symmetry_3
_geom_angle_publ_flag
C1 S1 C2 95.3(2) . . ?
C1 S2 C3 94.8(2) . . ?
C1 C1 S1 122.7(4) 2_766 . ?
C1 C1 S2 122.7(4) 2_766 . ?
S1 C1 S2 114.6(2) . . ?
C3 C2 C12 126.3(7) . . ?
C3 C2 Br2 125.2(3) . . ?
C3 C2 S1 117.1(3) . . ?
C12 C2 S1 116.6(7) . . ?
Br2 C2 S1 117.7(3) . . ?
C2 C3 C13 126.8(7) . . ?
C2 C3 S2 118.0(3) . . ?
C13 C3 S2 115.2(6) . . ?
C2 C3 Br3 125.3(3) . . ?
S2 C3 Br3 116.7(3) . . ?
loop_
_geom_bond_atom_site_label_1
_geom_bond_atom_site_label_2
_geom_bond_distance
_geom_bond_site_symmetry_2
_geom_bond_publ_flag
Br2 C2 1.746(6) . ?
Br3 C3 1.783(6) . ?
S1 C1 1.760(4) . ?
S1 C2 1.763(4) . ?
S2 C1 1.764(4) . ?
S2 C3 1.764(4) . ?
C1 C1 1.360(7) 2_766 ?
C2 C3 1.335(6) . ?
C2 C12 1.559(13) . ?
C3 C13 1.557(12) . ?
