#------------------------------------------------------------------------------
#$Date: 2016-03-26 18:05:48 +0200 (Sat, 26 Mar 2016) $
#$Revision: 180411 $
#$URL: svn://www.crystallography.net/cod/cif/7/20/80/7208075.cif $
#------------------------------------------------------------------------------
#
# This file is available in the Crystallography Open Database (COD),
# http://www.crystallography.net/
#
# All data on this site have been placed in the public domain by the
# contributors.
#
data_7208075
loop_
_publ_author_name
'Podsiad\/lo, Marcin'
'Bujak, Maciej'
'Katrusiak, Andrzej'
_publ_section_title
;
 Chemistry of density: extension and structural origin of Carnelley's rule
 in chloroethanes
;
_journal_issue                   13
_journal_name_full               CrystEngComm
_journal_page_first              4496
_journal_paper_doi               10.1039/c2ce25097g
_journal_volume                  14
_journal_year                    2012
_chemical_formula_moiety         'C2 H5 Cl'
_chemical_formula_sum            'C2 H5 Cl'
_chemical_formula_weight         64.51
_chemical_melting_point          134
_chemical_name_common            chloroethane
_chemical_name_systematic
;
chloroethane
;
_space_group_IT_number           176
_symmetry_cell_setting           hexagonal
_symmetry_space_group_name_Hall  '-P 6c'
_symmetry_space_group_name_H-M   'P 63/m'
_atom_sites_solution_hydrogens   geom
_atom_sites_solution_primary     direct
_atom_sites_solution_secondary   difmap
_audit_creation_method           SHELXL-97
_cell_angle_alpha                90.00
_cell_angle_beta                 90.00
_cell_angle_gamma                120.00
_cell_formula_units_Z            6
_cell_length_a                   8.8116(12)
_cell_length_b                   8.8116(12)
_cell_length_c                   6.2705(13)
_cell_measurement_reflns_used    3101
_cell_measurement_temperature    295(2)
_cell_measurement_theta_max      27.11
_cell_measurement_theta_min      4.21
_cell_volume                     421.64(12)
_computing_cell_refinement       'CrysAlisRED (Oxford Diffraction, 2004)'
_computing_data_collection       'CrysAlisCCD (Oxford Diffraction, 2004)'
_computing_data_reduction
'CrysAlisRED (Oxford Diffraction, 2004); REDSHABS (Katrusiak, A. 2003)'
_computing_molecular_graphics    'SHELXTL (Sheldrick, 1990)'
_computing_publication_material  'SHELXL--97 (Sheldrick, 1997)'
_computing_structure_refinement  'SHELXL--97 (Sheldrick, 1997)'
_computing_structure_solution    'SHELXS--97 (Sheldrick, 1997)'
_diffrn_ambient_environment      'diamond-anvil cell'
_diffrn_ambient_pressure         3040000
_diffrn_ambient_temperature      295(2)
_diffrn_measured_fraction_theta_full 0.499
_diffrn_measured_fraction_theta_max 0.499
_diffrn_measurement_device_type  'KM-4 CCD'
_diffrn_measurement_method       '\f- and \w-scans'
_diffrn_radiation_monochromator  graphite
_diffrn_radiation_source         'fine-focus sealed tube'
_diffrn_radiation_type           MoK\a
_diffrn_radiation_wavelength     0.71073
_diffrn_reflns_av_R_equivalents  0.0357
_diffrn_reflns_av_sigmaI/netI    0.0139
_diffrn_reflns_limit_h_max       10
_diffrn_reflns_limit_h_min       -11
_diffrn_reflns_limit_k_max       4
_diffrn_reflns_limit_k_min       -4
_diffrn_reflns_limit_l_max       8
_diffrn_reflns_limit_l_min       -8
_diffrn_reflns_number            1640
_diffrn_reflns_theta_full        27.11
_diffrn_reflns_theta_max         27.11
_diffrn_reflns_theta_min         4.21
_diffrn_standards_decay_%        0
_diffrn_standards_interval_count 0
_diffrn_standards_number         0
_exptl_absorpt_coefficient_mu    1.002
_exptl_absorpt_correction_T_max  0.83
_exptl_absorpt_correction_T_min  0.56
_exptl_absorpt_correction_type   analytical
_exptl_absorpt_process_details
;
Correction for absorption of the diamond-anvil cell and the sample
were made using program REDSHABS (Katrusiak, A. (2003) REDSHABS. Adam
Mickiewicz University Pozna\'n; Katrusiak, A. (2004) Z. Kristallogr.
219, 461-467).
;
_exptl_crystal_colour            colourless
_exptl_crystal_density_diffrn    1.524
_exptl_crystal_density_method    'not measured'
_exptl_crystal_description       cylinder
_exptl_crystal_F_000             204
_exptl_crystal_size_max          0.31
_exptl_crystal_size_mid          0.30
_exptl_crystal_size_min          0.14
_refine_diff_density_max         0.137
_refine_diff_density_min         -0.109
_refine_diff_density_rms         0.025
_refine_ls_extinction_method     none
_refine_ls_goodness_of_fit_ref   1.096
_refine_ls_hydrogen_treatment    mixed
_refine_ls_matrix_type           full
_refine_ls_number_parameters     30
_refine_ls_number_reflns         169
_refine_ls_number_restraints     0
_refine_ls_restrained_S_all      1.096
_refine_ls_R_factor_all          0.0175
_refine_ls_R_factor_gt           0.0172
_refine_ls_shift/su_max          0.000
_refine_ls_shift/su_mean         0.000
_refine_ls_structure_factor_coef Fsqd
_refine_ls_weighting_details
'calc w=1/[\s^2^(Fo^2^)+(0.0204P)^2^+0.1230P] where P=(Fo^2^+2Fc^2^)/3'
_refine_ls_weighting_scheme      calc
_refine_ls_wR_factor_gt          0.0440
_refine_ls_wR_factor_ref         0.0442
_reflns_number_gt                167
_reflns_number_total             169
_reflns_threshold_expression     >2sigma(I)
_cod_data_source_file            c2ce25097g.txt
_cod_data_source_block           2ce_3.04GPa
_cod_database_code               7208075
loop_
_symmetry_equiv_pos_as_xyz
'x, y, z'
'-y, x-y, z'
'-x+y, -x, z'
'-x, -y, z+1/2'
'y, -x+y, z+1/2'
'x-y, x, z+1/2'
'-x, -y, -z'
'y, -x+y, -z'
'x-y, x, -z'
'x, y, -z-1/2'
'-y, x-y, -z-1/2'
'-x+y, -x, -z-1/2'
loop_
_atom_site_label
_atom_site_type_symbol
_atom_site_fract_x
_atom_site_fract_y
_atom_site_fract_z
_atom_site_U_iso_or_equiv
_atom_site_adp_type
_atom_site_occupancy
_atom_site_symmetry_multiplicity
_atom_site_calc_flag
_atom_site_refinement_flags
Cl1 Cl 0.11002(8) 0.45452(8) 0.2500 0.0291(3) Uani 1 2 d S
C1 C -0.1222(3) 0.3048(3) 0.2500 0.0267(6) Uani 1 2 d S
H1 H -0.161(2) 0.338(2) 0.381(2) 0.038(5) Uiso 1 1 d .
C2 C -0.1614(4) 0.1190(3) 0.2500 0.0276(6) Uani 1 2 d S
H21 H -0.277(4) 0.053(4) 0.2500 0.036(8) Uiso 1 2 d S
H22 H -0.112(3) 0.098(3) 0.124(3) 0.054(5) Uiso 1 1 d .
loop_
_atom_site_aniso_label
_atom_site_aniso_U_11
_atom_site_aniso_U_22
_atom_site_aniso_U_33
_atom_site_aniso_U_23
_atom_site_aniso_U_13
_atom_site_aniso_U_12
Cl1 0.0246(4) 0.0229(4) 0.0347(3) 0.000 0.000 0.0080(3)
C1 0.0192(14) 0.0245(13) 0.0350(11) 0.000 0.000 0.0098(11)
C2 0.0276(15) 0.0208(13) 0.0298(11) 0.000 0.000 0.0088(12)
loop_
_atom_type_symbol
_atom_type_description
_atom_type_scat_dispersion_real
_atom_type_scat_dispersion_imag
_atom_type_scat_source
C C 0.0033 0.0016 'International Tables Vol C Tables 4.2.6.8 and 6.1.1.4'
H H 0.0000 0.0000 'International Tables Vol C Tables 4.2.6.8 and 6.1.1.4'
Cl Cl 0.1484 0.1585 'International Tables Vol C Tables 4.2.6.8 and 6.1.1.4'
loop_
_geom_angle_atom_site_label_1
_geom_angle_atom_site_label_2
_geom_angle_atom_site_label_3
_geom_angle
C2 C1 Cl1 111.0(2)
C2 C1 H1 113.5(9)
Cl1 C1 H1 102.7(10)
C1 C2 H21 106(2)
C1 C2 H22 109.4(13)
H21 C2 H22 110.7(16)
loop_
_geom_bond_atom_site_label_1
_geom_bond_atom_site_label_2
_geom_bond_distance
Cl1 C1 1.797(2)
C1 C2 1.495(3)
C1 H1 0.991(16)
C2 H21 0.89(3)
C2 H22 0.963(18)
loop_
_refln_index_h
_refln_index_k
_refln_index_l
_refln_F_squared_calc
_refln_F_squared_meas
_refln_F_squared_sigma
_refln_observed_status
0 2 0 15.74 18.66 0.17 o
-1 3 0 286.70 299.45 2.37 o
0 3 0 206.02 219.46 1.57 o
-3 4 0 92.27 88.69 1.34 o
-2 4 0 374.97 377.76 4.24 o
-3 5 0 18.24 17.46 0.40 o
-5 6 0 52.66 54.52 0.59 o
-4 6 0 165.74 169.08 1.50 o
-3 6 0 459.54 441.71 8.96 o
-5 7 0 374.00 358.58 10.99 o
-4 7 0 9.55 9.75 0.33 o
-6 8 0 531.56 541.50 5.24 o
-5 8 0 18.44 18.95 0.40 o
-6 9 0 11.26 12.42 1.04 o
-5 9 0 1.10 1.42 0.46 o
-7 10 0 27.08 21.59 0.71 o
-6 10 0 79.46 86.32 3.40 o
-7 11 0 120.21 113.97 3.89 o
0 1 1 167.77 179.60 1.42 o
0 2 1 262.90 265.85 2.24 o
-2 3 1 46.55 43.59 0.55 o
0 3 1 6.81 6.63 0.12 o
-3 4 1 1.98 1.96 0.08 o
-2 4 1 1440.84 1486.10 17.20 o
0 4 1 851.19 856.47 5.29 o
-4 5 1 17.01 18.80 0.23 o
-3 5 1 126.42 134.25 0.74 o
-2 5 1 41.57 49.35 0.43 o
-5 6 1 87.16 86.59 0.84 o
-4 6 1 36.13 38.13 0.33 o
-3 6 1 2016.25 1942.97 15.40 o
-6 7 1 178.31 175.75 2.31 o
-5 7 1 862.56 850.37 15.53 o
-4 7 1 136.50 135.29 1.24 o
-6 8 1 6.50 5.88 0.27 o
-5 8 1 58.00 58.86 0.88 o
-4 8 1 17.72 21.01 1.25 o
-7 9 1 108.48 109.23 2.48 o
-6 9 1 37.36 38.79 0.56 o
-5 9 1 170.98 170.94 1.24 o
-7 10 1 148.42 146.04 1.79 o
-6 10 1 75.01 77.47 1.18 o
-7 11 1 187.67 184.98 10.84 o
0 1 2 177.19 172.08 0.84 o
-1 2 2 510.53 510.49 4.03 o
0 2 2 21.24 21.94 0.21 o
-2 3 2 1560.54 1546.51 20.35 o
-1 3 2 270.61 260.81 2.89 o
0 3 2 54.84 53.72 0.42 o
-3 4 2 114.52 114.89 0.96 o
-2 4 2 184.11 181.33 1.23 o
0 4 2 708.36 740.59 9.53 o
-4 5 2 1792.90 1762.56 21.73 o
-3 5 2 8.75 6.59 0.14 o
-2 5 2 479.67 484.74 1.66 o
-5 6 2 35.06 34.36 0.53 o
-4 6 2 107.39 105.79 1.89 o
-3 6 2 393.57 391.17 2.83 o
-6 7 2 43.55 45.20 1.70 o
-5 7 2 314.02 306.58 3.23 o
-4 7 2 21.34 20.55 0.30 o
-6 8 2 441.44 452.42 7.24 o
-5 8 2 13.66 13.59 0.33 o
-4 8 2 152.77 149.23 1.81 o
-7 9 2 32.24 31.01 1.21 o
-6 9 2 7.49 6.61 0.61 o
-5 9 2 1.32 1.23 0.31 o
-7 10 2 20.91 18.29 0.64 o
-6 10 2 68.22 70.79 0.96 o
0 1 3 218.07 197.10 0.91 o
-1 2 3 878.27 914.59 5.59 o
0 2 3 24.27 23.98 0.14 o
-2 3 3 5.21 4.48 0.10 o
-1 3 3 1971.22 1935.65 14.50 o
0 3 3 6.76 5.24 0.19 o
-3 4 3 5.62 5.55 0.13 o
-2 4 3 563.49 569.12 5.77 o
-1 4 3 37.20 31.15 0.34 o
0 4 3 585.30 592.03 5.94 o
-4 5 3 17.89 17.59 0.31 o
-3 5 3 99.94 98.53 1.01 o
-2 5 3 23.17 20.78 0.59 o
0 5 3 299.29 308.99 4.56 o
-5 6 3 64.38 64.57 2.11 o
-4 6 3 22.76 23.89 0.32 o
-3 6 3 1235.68 1227.87 12.25 o
-6 7 3 102.71 102.67 1.73 o
-5 7 3 593.31 610.21 5.46 o
-4 7 3 90.69 91.73 1.10 o
-6 8 3 4.67 5.16 0.35 o
-5 8 3 49.67 47.52 0.68 o
-4 8 3 7.40 6.20 0.77 o
-7 9 3 79.80 77.80 3.00 o
-6 9 3 23.61 23.40 0.57 o
-5 9 3 119.92 121.98 2.22 o
-7 10 3 102.94 99.05 2.72 o
-6 10 3 51.55 51.14 2.52 o
0 1 4 76.07 72.33 0.37 o
-1 2 4 163.64 161.25 0.72 o
0 2 4 15.08 13.61 0.17 o
-2 3 4 711.92 693.74 5.49 o
-1 3 4 139.99 133.39 2.75 o
0 3 4 13.46 12.45 0.30 o
-3 4 4 70.39 71.25 0.76 o
-2 4 4 71.31 64.36 0.61 o
-1 4 4 60.51 59.66 1.86 o
0 4 4 310.81 310.17 8.95 o
-4 5 4 873.09 880.36 16.81 o
-3 5 4 2.70 1.98 0.21 o
-2 5 4 215.64 217.49 3.41 o
0 5 4 293.84 299.58 2.40 o
-5 6 4 17.41 16.36 0.79 o
-4 6 4 52.98 51.88 1.03 o
-3 6 4 216.81 214.84 2.16 o
-6 7 4 24.08 26.18 1.41 o
-5 7 4 179.32 178.72 2.71 o
-4 7 4 16.74 15.16 0.98 o
-6 8 4 251.23 279.77 6.43 o
-5 8 4 7.14 4.07 0.52 o
-4 8 4 88.67 89.28 2.53 o
-6 9 4 3.53 3.66 0.58 o
-5 9 4 0.70 1.45 0.62 o
0 1 5 73.13 68.76 0.46 o
-1 2 5 318.61 326.25 2.79 o
0 2 5 4.66 4.40 0.21 o
-2 3 5 1.85 1.29 0.16 o
-1 3 5 741.81 755.09 5.69 o
0 3 5 1.31 0.77 0.20 o
-3 4 5 1.05 1.33 0.18 o
-2 4 5 236.42 239.84 2.48 o
-1 4 5 22.26 20.36 1.12 o
0 4 5 249.39 260.41 5.18 o
-4 5 5 6.50 6.42 0.36 o
-3 5 5 40.20 40.52 0.82 o
-2 5 5 7.60 6.76 0.50 o
0 5 5 126.09 123.37 6.51 o
-5 6 5 28.33 27.78 0.82 o
-4 6 5 11.64 11.51 0.56 o
-3 6 5 558.22 586.21 2.34 o
-5 7 5 280.69 281.88 16.28 o
-4 7 5 42.15 44.55 1.55 o
-6 8 5 2.06 2.13 0.49 o
-5 8 5 22.36 20.09 2.12 o
0 0 6 1337.95 1333.18 22.25 o
0 1 6 23.26 22.12 0.26 o
-1 2 6 47.25 45.73 0.53 o
0 2 6 5.57 4.73 0.29 o
-2 3 6 229.87 229.68 3.79 o
-1 3 6 46.39 45.07 0.54 o
0 3 6 10.03 8.91 0.73 o
-3 4 6 22.24 24.19 0.64 o
-2 4 6 31.21 29.01 0.68 o
-1 4 6 18.46 17.28 1.04 o
0 4 6 124.28 126.36 3.83 o
-4 5 6 340.75 331.91 3.65 o
-3 5 6 1.48 0.93 0.41 o
-2 5 6 96.55 93.09 3.51 o
-5 6 6 8.09 8.34 1.11 o
-3 6 6 81.01 85.49 2.67 o
-4 7 6 4.53 4.33 0.57 o
0 1 7 19.17 19.56 0.40 o
-1 2 7 104.63 109.62 1.41 o
0 2 7 2.21 1.26 0.24 o
-1 3 7 245.71 252.54 7.14 o
0 3 7 0.02 0.28 0.23 o
-2 4 7 81.66 84.25 1.91 o
0 4 7 80.31 81.65 5.51 o
-4 5 7 1.80 1.19 0.79 o
0 1 8 5.79 4.51 1.32 o
