#------------------------------------------------------------------------------
#$Date: 2016-03-26 22:56:04 +0200 (Sat, 26 Mar 2016) $
#$Revision: 180523 $
#$URL: svn://www.crystallography.net/cod/cif/7/21/92/7219235.cif $
#------------------------------------------------------------------------------
#
# This file is available in the Crystallography Open Database (COD),
# http://www.crystallography.net/
#
# All data on this site have been placed in the public domain by the
# contributors.
#
data_7219235
loop_
_publ_author_name
'Long, Sihui'
'Zhou, Panpan'
'Theiss, Kathryn L.'
'Siegler, Maxime A.'
'Li, Tonglei'
_publ_section_title
;
 Solid-state identity of 2-hydroxynicotinic acid and its polymorphism
;
_journal_issue                   28
_journal_name_full               CrystEngComm
_journal_page_first              5195
_journal_paper_doi               10.1039/C4CE02290D
_journal_volume                  17
_journal_year                    2015
_chemical_formula_moiety         'C6 H5 N O3'
_chemical_formula_sum            'C6 H5 N O3'
_chemical_formula_weight         139.11
_chemical_name_common            2-ODHPCA
_chemical_name_systematic        '2-oxo-1,2-dihydro-3-pyridinecarboxylic acid'
_space_group_IT_number           14
_space_group_name_Hall           '-P 2ybc'
_symmetry_cell_setting           monoclinic
_symmetry_space_group_name_Hall  '-P 2ybc'
_symmetry_space_group_name_H-M   'P 1 21/c 1'
_atom_sites_solution_hydrogens   geom
_atom_sites_solution_primary     direct
_atom_sites_solution_secondary   difmap
_audit_creation_method           SHELXL-97
_audit_update_record
;
2014-11-19 deposited with the CCDC.
2015-01-05 downloaded from the CCDC.
;
_cell_angle_alpha                90.00
_cell_angle_beta                 106.31(3)
_cell_angle_gamma                90.00
_cell_formula_units_Z            4
_cell_length_a                   9.997(2)
_cell_length_b                   3.754(1)
_cell_length_c                   15.362(3)
_cell_measurement_reflns_used    1458
_cell_measurement_temperature    90.0(2)
_cell_measurement_theta_max      27.48
_cell_measurement_theta_min      1.00
_cell_volume                     553.3(2)
_computing_cell_refinement       'DENZO-SMN (Nonius, 1997)'
_computing_data_collection       'COLLECT (Nonius, 2002)'
_computing_data_reduction        'DENZO-SMN (Nonius, 1997)'
_computing_molecular_graphics    'XP in SHELXTL (Bruker, 1995)'
_computing_publication_material  'SHELX-97 and local procedures'
_computing_structure_refinement  'SHELXL-97 (Sheldrick, 1997)'
_computing_structure_solution    'SHELXS-97 (Sheldrick, 1997)'
_diffrn_ambient_temperature      90.0(2)
_diffrn_detector_area_resol_mean 18
_diffrn_measured_fraction_theta_full 1.000
_diffrn_measured_fraction_theta_max 1.000
_diffrn_measurement_device_type  'Nonius KappaCCD diffractometer'
_diffrn_measurement_method       '\w scans at fixed \c = 55\%'
_diffrn_radiation_monochromator  graphite
_diffrn_radiation_source         'fine-focus sealed tube'
_diffrn_radiation_type           MoK\a
_diffrn_radiation_wavelength     0.71073
_diffrn_reflns_av_R_equivalents  0.0214
_diffrn_reflns_av_sigmaI/netI    0.0298
_diffrn_reflns_limit_h_max       12
_diffrn_reflns_limit_h_min       -12
_diffrn_reflns_limit_k_max       4
_diffrn_reflns_limit_k_min       -4
_diffrn_reflns_limit_l_max       19
_diffrn_reflns_limit_l_min       -19
_diffrn_reflns_number            2322
_diffrn_reflns_theta_full        27.49
_diffrn_reflns_theta_max         27.49
_diffrn_reflns_theta_min         2.12
_exptl_absorpt_coefficient_mu    0.137
_exptl_absorpt_correction_T_max  0.9732
_exptl_absorpt_correction_T_min  0.9601
_exptl_absorpt_correction_type   multi-scan
_exptl_absorpt_process_details   'Scalepack (Otwinowski & Minor, 1997)'
_exptl_crystal_colour            colorless
_exptl_crystal_density_diffrn    1.670
_exptl_crystal_density_method    'not measured'
_exptl_crystal_description       needle
_exptl_crystal_F_000             288
_exptl_crystal_size_max          0.30
_exptl_crystal_size_mid          0.20
_exptl_crystal_size_min          0.20
_refine_diff_density_max         0.320
_refine_diff_density_min         -0.262
_refine_diff_density_rms         0.063
_refine_ls_extinction_method     none
_refine_ls_goodness_of_fit_ref   1.094
_refine_ls_hydrogen_treatment    constr
_refine_ls_matrix_type           full
_refine_ls_number_parameters     92
_refine_ls_number_reflns         1263
_refine_ls_number_restraints     0
_refine_ls_restrained_S_all      1.094
_refine_ls_R_factor_all          0.0569
_refine_ls_R_factor_gt           0.0427
_refine_ls_shift/su_max          0.000
_refine_ls_shift/su_mean         0.000
_refine_ls_structure_factor_coef Fsqd
_refine_ls_weighting_details
'calc w=1/[\s^2^(Fo^2^)+(0.0611P)^2^+0.2405P] where P=(Fo^2^+2Fc^2^)/3'
_refine_ls_weighting_scheme      calc
_refine_ls_wR_factor_gt          0.1083
_refine_ls_wR_factor_ref         0.1187
_reflns_number_gt                991
_reflns_number_total             1263
_reflns_threshold_expression     >2\s(I)
_cod_data_source_file            c4ce02290d1.cif
_cod_data_source_block           III
_cod_depositor_comments
'Adding full bibliography for 7219233--7219236.cif.'
_cod_original_sg_symbol_H-M      'P 21/c'
_cod_database_code               7219235
loop_
_symmetry_equiv_pos_as_xyz
'x, y, z'
'-x, y+1/2, -z+1/2'
'-x, -y, -z'
'x, -y-1/2, z-1/2'
loop_
_atom_site_label
_atom_site_type_symbol
_atom_site_fract_x
_atom_site_fract_y
_atom_site_fract_z
_atom_site_U_iso_or_equiv
_atom_site_adp_type
_atom_site_occupancy
_atom_site_symmetry_multiplicity
_atom_site_calc_flag
_atom_site_refinement_flags
C2 C 0.35224(14) 0.2723(4) 0.40230(10) 0.0157(3) Uani 1 1 d .
C3 C 0.24359(14) 0.4274(4) 0.33117(9) 0.0156(3) Uani 1 1 d .
C4 C 0.13334(15) 0.5926(4) 0.35085(10) 0.0170(3) Uani 1 1 d .
H4 H 0.0612 0.6923 0.3030 0.020 Uiso 1 1 calc R
C5 C 0.12520(15) 0.6173(4) 0.44013(10) 0.0189(4) Uani 1 1 d .
H5 H 0.0482 0.7308 0.4533 0.023 Uiso 1 1 calc R
C6 C 0.23038(15) 0.4747(4) 0.50780(10) 0.0186(4) Uani 1 1 d .
H6 H 0.2275 0.4917 0.5690 0.022 Uiso 1 1 calc R
C7 C 0.25236(15) 0.4153(4) 0.23561(10) 0.0179(4) Uani 1 1 d .
N1 N 0.33889(12) 0.3090(4) 0.48845(8) 0.0169(3) Uani 1 1 d .
H1 H 0.4048 0.2194 0.5338 0.020 Uiso 1 1 calc R
O8 O 0.36517(11) 0.2626(3) 0.22257(7) 0.0221(3) Uani 1 1 d .
H8 H 0.4179 0.1952 0.2726 0.033 Uiso 1 1 calc R
O9 O 0.16204(11) 0.5401(3) 0.17263(7) 0.0233(3) Uani 1 1 d .
O10 O 0.45649(10) 0.1097(3) 0.39036(7) 0.0196(3) Uani 1 1 d .
loop_
_atom_site_aniso_label
_atom_site_aniso_U_11
_atom_site_aniso_U_22
_atom_site_aniso_U_33
_atom_site_aniso_U_23
_atom_site_aniso_U_13
_atom_site_aniso_U_12
C2 0.0141(7) 0.0143(8) 0.0177(7) -0.0018(6) 0.0029(5) -0.0035(6)
C3 0.0157(7) 0.0140(8) 0.0162(7) 0.0001(6) 0.0031(6) -0.0031(6)
C4 0.0153(7) 0.0154(8) 0.0185(7) 0.0012(6) 0.0022(5) -0.0018(6)
C5 0.0163(7) 0.0181(8) 0.0220(8) -0.0009(6) 0.0052(6) 0.0005(6)
C6 0.0200(8) 0.0187(8) 0.0172(7) -0.0014(6) 0.0054(6) -0.0027(6)
C7 0.0161(7) 0.0190(8) 0.0176(7) -0.0005(6) 0.0031(6) -0.0041(6)
N1 0.0144(6) 0.0204(7) 0.0142(6) 0.0010(5) 0.0011(5) -0.0007(5)
O8 0.0186(6) 0.0316(7) 0.0162(5) 0.0006(5) 0.0048(4) 0.0011(5)
O9 0.0204(6) 0.0290(7) 0.0181(6) 0.0033(5) 0.0018(4) -0.0011(5)
O10 0.0162(5) 0.0245(6) 0.0174(5) 0.0005(5) 0.0033(4) 0.0022(5)
loop_
_atom_type_symbol
_atom_type_description
_atom_type_scat_dispersion_real
_atom_type_scat_dispersion_imag
_atom_type_scat_source
C C 0.0033 0.0016 'International Tables Vol C Tables 4.2.6.8 and 6.1.1.4'
H H 0.0000 0.0000 'International Tables Vol C Tables 4.2.6.8 and 6.1.1.4'
N N 0.0061 0.0033 'International Tables Vol C Tables 4.2.6.8 and 6.1.1.4'
O O 0.0106 0.0060 'International Tables Vol C Tables 4.2.6.8 and 6.1.1.4'
loop_
_geom_angle_atom_site_label_1
_geom_angle_atom_site_label_2
_geom_angle_atom_site_label_3
_geom_angle
O10 C2 N1 119.67(13)
O10 C2 C3 124.43(13)
N1 C2 C3 115.90(13)
C4 C3 C2 120.06(13)
C4 C3 C7 120.17(13)
C2 C3 C7 119.75(13)
C3 C4 C5 121.18(14)
C3 C4 H4 119.4
C5 C4 H4 119.4
C6 C5 C4 118.46(14)
C6 C5 H5 120.8
C4 C5 H5 120.8
N1 C6 C5 120.45(14)
N1 C6 H6 119.8
C5 C6 H6 119.8
O9 C7 O8 121.18(14)
O9 C7 C3 122.27(14)
O8 C7 C3 116.55(13)
C6 N1 C2 123.93(13)
C6 N1 H1 118.0
C2 N1 H1 118.0
C7 O8 H8 109.5
loop_
_geom_bond_atom_site_label_1
_geom_bond_atom_site_label_2
_geom_bond_distance
C2 O10 1.2648(18)
C2 N1 1.3738(19)
C2 C3 1.430(2)
C3 C4 1.371(2)
C3 C7 1.496(2)
C4 C5 1.400(2)
C4 H4 0.9500
C5 C6 1.363(2)
C5 H5 0.9500
C6 N1 1.3540(19)
C6 H6 0.9500
C7 O9 1.2166(19)
C7 O8 1.3294(19)
N1 H1 0.8800
O8 H8 0.8400
loop_
_geom_hbond_atom_site_label_D
_geom_hbond_atom_site_label_H
_geom_hbond_atom_site_label_A
_geom_hbond_distance_DH
_geom_hbond_distance_HA
_geom_hbond_distance_DA
_geom_hbond_angle_DHA
_geom_hbond_site_symmetry_A
N1 H1 O10 0.88 1.97 2.8253(18) 162.1 3_656
O8 H8 O10 0.84 1.77 2.5466(16) 153.0 .
loop_
_geom_torsion_atom_site_label_1
_geom_torsion_atom_site_label_2
_geom_torsion_atom_site_label_3
_geom_torsion_atom_site_label_4
_geom_torsion
O10 C2 C3 C4 178.77(14)
N1 C2 C3 C4 -1.4(2)
O10 C2 C3 C7 -2.6(2)
N1 C2 C3 C7 177.25(13)
C2 C3 C4 C5 0.8(2)
C7 C3 C4 C5 -177.91(14)
C3 C4 C5 C6 0.4(2)
C4 C5 C6 N1 -0.9(2)
C4 C3 C7 O9 -2.1(2)
C2 C3 C7 O9 179.24(14)
C4 C3 C7 O8 177.43(14)
C2 C3 C7 O8 -1.2(2)
C5 C6 N1 C2 0.2(2)
O10 C2 N1 C6 -179.21(14)
C3 C2 N1 C6 1.0(2)
