#------------------------------------------------------------------------------
#$Date: 2019-11-07 21:58:20 +0200 (Thu, 07 Nov 2019) $
#$Revision: 223667 $
#$URL: file:///home/coder/svn-repositories/cod/cif/7/23/28/7232896.cif $
#------------------------------------------------------------------------------
#
# This file is available in the Crystallography Open Database (COD),
# http://www.crystallography.net/
#
# All data on this site have been placed in the public domain by the
# contributors.
#
data_7232896
loop_
_publ_author_name
'Smith, Ellie Louvain'
'Ridout, Joe'
'Sellars, Jonathan David'
'Probert, Michael Richard'
_publ_section_title
;
 A structural exploration of anisole accessed through extreme
 crystallisation conditions
;
_journal_issue                   30
_journal_name_full               CrystEngComm
_journal_page_first              4422
_journal_paper_doi               10.1039/C9CE00870E
_journal_volume                  21
_journal_year                    2019
_chemical_formula_moiety         'C7 H8 O'
_chemical_formula_sum            'C7 H8 O'
_chemical_formula_weight         108.13
_chemical_name_systematic        methoxybenzene
_space_group_crystal_system      monoclinic
_space_group_IT_number           14
_space_group_name_Hall           '-P 2ybc'
_space_group_name_H-M_alt        'P 1 21/c 1'
_symmetry_space_group_name_Hall  '-P 2ybc'
_symmetry_space_group_name_H-M   'P 1 21/c 1'
_atom_sites_solution_hydrogens   geom
_atom_sites_solution_primary     dual
_audit_creation_date             2018-10-24
_audit_creation_method
;
Olex2 1.2
(compiled May 29 2018 13:30:08 for OlexSys, GUI svn.r5506)
;
_audit_update_record
;
2018-10-25 deposited with the CCDC.    2019-06-13 downloaded from the CCDC.
;
_cell_angle_alpha                90
_cell_angle_beta                 98.401(18)
_cell_angle_gamma                90
_cell_formula_units_Z            4
_cell_length_a                   13.700(4)
_cell_length_b                   5.4468(8)
_cell_length_c                   7.8567(11)
_cell_measurement_reflns_used    986
_cell_measurement_temperature    296.15
_cell_measurement_theta_max      17.53
_cell_measurement_theta_min      3.60
_cell_volume                     580.0(2)
_computing_cell_refinement       'SAINT V8.38A (Bruker AXS Inc, 2016)'
_computing_data_reduction        'SAINT V8.38A (Bruker AXS Inc, 2016)'
_computing_molecular_graphics    'Olex2 (Dolomanov et al., 2009)'
_computing_publication_material  'Olex2 (Dolomanov et al., 2009)'
_computing_structure_refinement  'XL (Sheldrick, 2008)'
_computing_structure_solution    'XT (Sheldrick, 2015)'
_diffrn_ambient_temperature      296.15
_diffrn_detector                 'CCD area detector'
_diffrn_detector_area_resol_mean 0.0350
_diffrn_detector_type            'Rigaku Saturn724+'
_diffrn_measured_fraction_theta_full 0.392
_diffrn_measured_fraction_theta_max 0.392
_diffrn_measurement_device_type  'Bruker APEX-II CCD'
_diffrn_measurement_method       '\f scans'
_diffrn_radiation_probe          x-ray
_diffrn_radiation_type           AgK\a
_diffrn_radiation_wavelength     0.56086
_diffrn_reflns_av_R_equivalents  0.0291
_diffrn_reflns_av_unetI/netI     0.0181
_diffrn_reflns_Laue_measured_fraction_full 0.392
_diffrn_reflns_Laue_measured_fraction_max 0.392
_diffrn_reflns_limit_h_max       9
_diffrn_reflns_limit_h_min       -9
_diffrn_reflns_limit_k_max       4
_diffrn_reflns_limit_k_min       -4
_diffrn_reflns_limit_l_max       8
_diffrn_reflns_limit_l_min       -8
_diffrn_reflns_number            2664
_diffrn_reflns_point_group_measured_fraction_full 0.392
_diffrn_reflns_point_group_measured_fraction_max 0.392
_diffrn_reflns_theta_full        18.131
_diffrn_reflns_theta_max         18.131
_diffrn_reflns_theta_min         3.605
_diffrn_source                   'Bruker TXS with Helios Optics'
_diffrn_standards_number         0
_exptl_absorpt_coefficient_mu    0.052
_exptl_absorpt_correction_T_max  0.7442
_exptl_absorpt_correction_T_min  0.6293
_exptl_absorpt_correction_type   multi-scan
_exptl_absorpt_process_details
;
SADABS-2016/2 (Bruker,2016) was used for absorption correction.
wR2(int) was 0.0605 before and 0.0385 after correction.
The Ratio of minimum to maximum transmission is 0.8456.
The \l/2 correction factor is Not present.
;
_exptl_crystal_colour            'clear light colourless'
_exptl_crystal_colour_lustre     clear
_exptl_crystal_colour_modifier   light
_exptl_crystal_colour_primary    colourless
_exptl_crystal_density_diffrn    1.238
_exptl_crystal_density_method    'not measured'
_exptl_crystal_description       plate
_exptl_crystal_F_000             232
_exptl_crystal_preparation
'Crystal grown inside diamond anvil cell at high pressure'
_exptl_crystal_recrystallization_method
'Crystal grown inside diamond anvil cell at high pressure'
_exptl_crystal_size_max          0.25
_exptl_crystal_size_mid          0.25
_exptl_crystal_size_min          0.1
_refine_diff_density_max         0.094
_refine_diff_density_min         -0.088
_refine_diff_density_rms         0.025
_refine_ls_extinction_method     none
_refine_ls_goodness_of_fit_ref   1.133
_refine_ls_hydrogen_treatment    constr
_refine_ls_matrix_type           full
_refine_ls_number_parameters     74
_refine_ls_number_reflns         326
_refine_ls_number_restraints     51
_refine_ls_restrained_S_all      1.048
_refine_ls_R_factor_all          0.0616
_refine_ls_R_factor_gt           0.0362
_refine_ls_shift/su_max          0.000
_refine_ls_shift/su_mean         0.000
_refine_ls_structure_factor_coef Fsqd
_refine_ls_weighting_details
'w=1/[\s^2^(Fo^2^)+(0.0223P)^2^+0.4505P] where P=(Fo^2^+2Fc^2^)/3'
_refine_ls_weighting_scheme      calc
_refine_ls_wR_factor_gt          0.0730
_refine_ls_wR_factor_ref         0.0898
_reflns_Friedel_coverage         0.000
_reflns_number_gt                231
_reflns_number_total             326
_reflns_threshold_expression     'I > 2\s(I)'
_iucr_refine_instructions_details
;
TITL test_a.res in P2(1)/c
    anisole_new.res
    created by SHELXL-2016/6 at 12:32:23 on 24-Oct-2018
REM Old TITL test in P2(1)/c
REM SHELXT solution in P2(1)/c
REM R1 0.253, Rweak 0.011, Alpha 0.062, Orientation as input
REM Formula found by SHELXT: C12
CELL 0.56086 13.6995 5.4468 7.8567 90 98.401 90
ZERR 4 0.0037 0.0008 0.0011 0 0.018 0
LATT 1
SYMM -X,0.5+Y,0.5-Z
SFAC C H O
UNIT 28 32 4
RIGU

L.S. 4
PLAN  3
SIZE 0.1 0.25 0.25
TEMP 23
BOND $H
list 4
fmap 2
acta
more -3
OMIT -6 1 3
OMIT -8 0 6
OMIT -4 2 1
OMIT -4 1 2
OMIT -8 1 5
OMIT -6 1 4
REM <olex2.extras>
REM <HklSrc "%./anisole_new_0m.hkl">
REM </olex2.extras>

WGHT    0.022300    0.450500
FVAR       1.32088
O2    3    0.890665    0.483916    0.555874    11.00000    0.08505    0.05524 =
         0.05799    0.01204    0.00909    0.00214
C5    1    0.667817    0.693250    0.311923    11.00000    0.10386    0.04584 =
         0.03925    0.00587    0.01281    0.00451
AFIX  43
H5    2    0.649412    0.820780    0.235215    11.00000   -1.20000
AFIX   0
C8    1    0.725036    0.307733    0.527468    11.00000    0.09446    0.04727 =
         0.03415    0.00580    0.01834    0.00040
AFIX  43
H8    2    0.744859    0.177237    0.600766    11.00000   -1.20000
AFIX   0
C6    1    0.595004    0.520104    0.346588    11.00000    0.09983    0.05570 =
         0.04269   -0.00270    0.01081    0.00206
AFIX  43
H6    2    0.528801    0.534478    0.300205    11.00000   -1.20000
AFIX   0
C1    1    0.931278    0.276953    0.650614    11.00000    0.12638    0.07409 =
         0.05171    0.01481    0.00758    0.01585
AFIX 137
H1A   2    0.916301    0.130993    0.583369    11.00000   -1.50000
H1B   2    0.903464    0.264265    0.755560    11.00000   -1.50000
H1C   2    1.001544    0.295576    0.677013    11.00000   -1.50000
AFIX   0
C4    1    0.758695    0.677643    0.384270    11.00000    0.09925    0.03962 =
         0.03987    0.00187    0.01258   -0.00813
AFIX  43
H4    2    0.802287    0.801075    0.363207    11.00000   -1.20000
AFIX   0
C3    1    0.794274    0.485360    0.491897    11.00000    0.08471    0.04759 =
         0.03319    0.00160    0.02077    0.00936
C7    1    0.630675    0.328090    0.455136    11.00000    0.09758    0.04205 =
         0.04447    0.00030    0.01628   -0.00535
AFIX  43
H7    2    0.586533    0.207375    0.478677    11.00000   -1.20000
AFIX   0
HKLF 4




REM  test_a.res in P2(1)/c
REM R1 =  0.0362 for     231 Fo > 4sig(Fo)  and  0.0616 for all     326 data
REM     74 parameters refined using     51 restraints

END  
     
WGHT      0.0223      0.4505 

REM Highest difference peak  0.094,  deepest hole -0.088,  1-sigma level  0.025
Q1    1   0.6578  1.0515  0.3436  11.00000  0.05    0.09
Q2    1   0.9403  0.0723  0.5669  11.00000  0.05    0.09
Q3    1   0.8542  0.8681  0.4030  11.00000  0.05    0.08

  REM The information below was added by Olex2.
  REM
  REM R1 = 0.0362 for 231 Fo > 4sig(Fo) and 0.0616 for all 2878 data
  REM n/a parameters refined using n/a restraints
  REM Highest difference peak 0.09, deepest hole -0.09
  REM Mean Shift 0, Max Shift 0.000.

  REM +++ Tabular Listing of Refinement Information +++
  REM R1_all = 0.0616
  REM R1_gt = 0.0362
  REM wR_ref = 0.0898
  REM GOOF = 1.133
  REM Shift_max = 0.000
  REM Shift_mean = 0
  REM Reflections_all = 2878
  REM Reflections_gt = 231
  REM Parameters = n/a
  REM Hole = -0.09
  REM Peak = 0.09
  REM Flack = n/a

  
;
_cod_data_source_file            c9ce00870e2.cif
_cod_data_source_block           anisole_new
_cod_depositor_comments
'Adding full bibliography for 7232896--7232897.cif.'
_cod_database_code               7232896
_shelx_shelxl_version_number     2016/6
_shelx_space_group_comment
;
The symmetry employed for this shelxl refinement is uniquely defined
by the following loop, which should always be used as a source of
symmetry information in preference to the above space-group names.
They are only intended as comments.
;
_shelx_estimated_absorpt_t_max   0.995
_shelx_estimated_absorpt_t_min   0.987
_olex2_refinement_description
;
1. Fixed Uiso
 At 1.2 times of:
  All C(H) groups
 At 1.5 times of:
  All C(H,H,H) groups
2. Rigid body (RIGU) restrains
 All non-hydrogen atoms
 with sigma for 1-2 distances of 0.004 and sigma for 1-3 distances of 0.004
3.a Aromatic/amide H refined with riding coordinates:
 C5(H5), C8(H8), C6(H6), C4(H4), C7(H7)
3.b Idealised Me refined as rotating group:
 C1(H1A,H1B,H1C)
;
_olex2_exptl_crystal_mounting_method
;
Crystal mounted onto diffractometer using
custom grip for diamond anvil cell into standard
goniometer head
;
_olex2_submission_special_instructions 'No special instructions were received'
loop_
_space_group_symop_operation_xyz
'x, y, z'
'-x, y+1/2, -z+1/2'
'-x, -y, -z'
'x, -y-1/2, z-1/2'
loop_
_atom_site_label
_atom_site_type_symbol
_atom_site_fract_x
_atom_site_fract_y
_atom_site_fract_z
_atom_site_U_iso_or_equiv
_atom_site_adp_type
_atom_site_occupancy
_atom_site_site_symmetry_order
_atom_site_calc_flag
_atom_site_refinement_flags_posn
_atom_site_refinement_flags_adp
O2 O 0.8907(7) 0.4839(7) 0.5559(5) 0.066(3) Uani 1 1 d . U
C5 C 0.6678(9) 0.6932(11) 0.3119(7) 0.063(4) Uani 1 1 d . U
H5 H 0.649412 0.820780 0.235215 0.075 Uiso 1 1 calc R .
C8 C 0.7250(9) 0.3077(10) 0.5275(7) 0.058(4) Uani 1 1 d . U
H8 H 0.744859 0.177237 0.600766 0.069 Uiso 1 1 calc R .
C6 C 0.5950(7) 0.5201(8) 0.3466(5) 0.066(3) Uani 1 1 d . U
H6 H 0.528801 0.534478 0.300205 0.079 Uiso 1 1 calc R .
C1 C 0.9313(8) 0.2770(9) 0.6506(6) 0.085(4) Uani 1 1 d . U
H1A H 0.916301 0.130993 0.583369 0.127 Uiso 1 1 calc GR .
H1B H 0.903464 0.264265 0.755560 0.127 Uiso 1 1 calc GR .
H1C H 1.001544 0.295576 0.677013 0.127 Uiso 1 1 calc GR .
C4 C 0.7587(9) 0.6776(10) 0.3843(6) 0.059(4) Uani 1 1 d . U
H4 H 0.802287 0.801075 0.363207 0.071 Uiso 1 1 calc R .
C3 C 0.7943(9) 0.4854(10) 0.4919(6) 0.054(4) Uani 1 1 d . U
C7 C 0.6307(9) 0.3281(9) 0.4551(6) 0.061(4) Uani 1 1 d . U
H7 H 0.586533 0.207375 0.478677 0.073 Uiso 1 1 calc R .
loop_
_atom_site_aniso_label
_atom_site_aniso_U_11
_atom_site_aniso_U_22
_atom_site_aniso_U_33
_atom_site_aniso_U_23
_atom_site_aniso_U_13
_atom_site_aniso_U_12
O2 0.085(11) 0.055(2) 0.058(2) 0.0120(17) 0.009(3) 0.002(4)
C5 0.104(12) 0.046(3) 0.039(3) 0.006(3) 0.013(4) 0.005(5)
C8 0.094(12) 0.047(3) 0.034(3) 0.006(2) 0.018(4) 0.000(5)
C6 0.100(12) 0.056(3) 0.043(2) -0.003(2) 0.011(4) 0.002(4)
C1 0.126(15) 0.074(4) 0.052(3) 0.015(2) 0.008(5) 0.016(5)
C4 0.099(12) 0.040(3) 0.040(3) 0.002(2) 0.013(4) -0.008(5)
C3 0.085(11) 0.048(3) 0.033(3) 0.002(2) 0.021(4) 0.009(4)
C7 0.098(12) 0.042(3) 0.044(3) 0.000(2) 0.016(4) -0.005(5)
loop_
_atom_type_symbol
_atom_type_description
_atom_type_scat_dispersion_real
_atom_type_scat_dispersion_imag
_atom_type_scat_source
C C 0.0015 0.0009 'International Tables Vol C Tables 4.2.6.8 and 6.1.1.4'
H H 0.0000 0.0000 'International Tables Vol C Tables 4.2.6.8 and 6.1.1.4'
O O 0.0056 0.0036 'International Tables Vol C Tables 4.2.6.8 and 6.1.1.4'
loop_
_geom_angle_atom_site_label_1
_geom_angle_atom_site_label_2
_geom_angle_atom_site_label_3
_geom_angle
C3 O2 C1 119.3(7)
C6 C5 H5 119.1
C4 C5 H5 119.1
C4 C5 C6 121.8(6)
C3 C8 H8 120.2
C7 C8 H8 120.2
C7 C8 C3 119.6(7)
C5 C6 H6 122.6
C7 C6 C5 114.9(9)
C7 C6 H6 122.6
O2 C1 H1A 109.5
O2 C1 H1B 109.5
O2 C1 H1C 109.5
H1A C1 H1B 109.5
H1A C1 H1C 109.5
H1B C1 H1C 109.5
C5 C4 H4 118.4
C5 C4 C3 123.1(10)
C3 C4 H4 118.4
O2 C3 C8 125.1(7)
O2 C3 C4 118.1(9)
C4 C3 C8 116.8(11)
C8 C7 C6 123.6(8)
C8 C7 H7 118.2
C6 C7 H7 118.2
loop_
_geom_bond_atom_site_label_1
_geom_bond_atom_site_label_2
_geom_bond_distance
O2 C1 1.419(8)
O2 C3 1.343(14)
C5 H5 0.9300
C5 C6 1.428(12)
C5 C4 1.294(16)
C8 H8 0.9300
C8 C3 1.411(15)
C8 C7 1.339(14)
C6 H6 0.9300
C6 C7 1.392(8)
C1 H1A 0.9600
C1 H1B 0.9600
C1 H1C 0.9600
C4 H4 0.9300
C4 C3 1.389(10)
C7 H7 0.9300
