####################################################################### 
# 
# This file contains crystal structure data downloaded from the 
# Cambridge Structural Database (CSD) hosted by the Cambridge 
# Crystallographic Data Centre (CCDC).
# 
# Full information about CCDC data access policies and citation 
# guidelines are available at http://www.ccdc.cam.ac.uk/access/V1 
# 
# Audit and citation data items may have been added by the CCDC. 
# Please retain this information to preserve the provenance of 
# this file and to allow appropriate attribution of the data. 
# 
#######################################################################

data_MAIN-1
_audit_block_doi                 10.5517/ccdc.csd.cc1lg9zb
_database_code_depnum_ccdc_archive 'CCDC 1473522'
loop_
_citation_id
_citation_doi
_citation_year
1 10.1021/acs.cgd.8b01262 2019
_audit_update_record             
;
2016-04-12 deposited with the CCDC.	2022-02-04 downloaded from the CCDC.
;

_audit_creation_method           SHELXL-2014
_chemical_name_systematic        
;
 Oxamide
;
_chemical_name_common            'clear crystals'
_chemical_melting_point          ?
_chemical_formula_moiety         'C2 H4 N2 O2'
_chemical_formula_sum            'C2 H4 N2 O2'
_chemical_formula_weight         88.03

loop_
_atom_type_symbol
_atom_type_description
_atom_type_scat_dispersion_real
_atom_type_scat_dispersion_imag
_atom_type_scat_source
C C 0.0033 0.0016 'International Tables Vol C Tables 4.2.6.8 and 6.1.1.4'
H H 0.0000 0.0000 'International Tables Vol C Tables 4.2.6.8 and 6.1.1.4'
N N 0.0061 0.0033 'International Tables Vol C Tables 4.2.6.8 and 6.1.1.4'
O O 0.0106 0.0060 'International Tables Vol C Tables 4.2.6.8 and 6.1.1.4'

_space_group_crystal_system      triclinic
_space_group_IT_number           2
_space_group_name_H-M_alt        'P -1'
_space_group_name_Hall           '-P 1'

_shelx_space_group_comment       
;
The symmetry employed for this shelxl refinement is uniquely defined
by the following loop, which should always be used as a source of
symmetry information in preference to the above space-group names.
They are only intended as comments.
;

loop_
_space_group_symop_operation_xyz
'x, y, z'
'-x, -y, -z'

_cell_length_a                   3.5592(7)
_cell_length_b                   4.8685(10)
_cell_length_c                   5.2934(10)
_cell_angle_alpha                90.842(2)
_cell_angle_beta                 103.472(2)
_cell_angle_gamma                106.075(2)
_cell_volume                     85.40(3)
_cell_formula_units_Z            1
_cell_measurement_temperature    119(2)
_cell_measurement_reflns_used    184
_cell_measurement_theta_min      2.19
_cell_measurement_theta_max      54.17

_exptl_crystal_description       block
_exptl_crystal_colour            colorless
_exptl_crystal_density_meas      'not measured'
_exptl_crystal_density_method    ?
_exptl_crystal_density_diffrn    1.673
_exptl_crystal_F_000             44
_exptl_transmission_factor_min   ?
_exptl_transmission_factor_max   ?
_exptl_crystal_size_max          0.533
_exptl_crystal_size_mid          0.282
_exptl_crystal_size_min          0.268
_exptl_absorpt_coefficient_mu    0.150
_shelx_estimated_absorpt_T_min   0.924
_shelx_estimated_absorpt_T_max   0.961
_exptl_absorpt_correction_type   numerical
_exptl_absorpt_correction_T_min  0.7015
_exptl_absorpt_correction_T_max  0.7464
_exptl_absorpt_process_details   'SADABS (Bruker AXS, 2013)'

_exptl_special_details           
; 
Suitable clear and colorless crystal of the compound
was selected for studies and placed on a tip of a fine
glass fiber that was positioned on Cu-pin of a goniometer
head of APEX 2 diffractometer. Intensities were collected
at 120 K.  

Data were corrected for decay and absorption using the 
program SADABS (Sheldrick, G.M. (2013);SADABS,version 2.10. 
University of Gottingen, Germany) 
;

_diffrn_ambient_temperature      119(2)
_diffrn_radiation_wavelength     0.71073
_diffrn_radiation_type           MoK\a
_diffrn_radiation_source         'fine-focus sealed tube'
_diffrn_radiation_monochromator  graphite
_diffrn_measurement_device_type  'Bruker APEX2 CCD area detector'
_diffrn_measurement_method       '4 omega scans = full sphere'
_diffrn_detector_area_resol_mean ?
_diffrn_reflns_number            1106
_diffrn_reflns_av_unetI/netI     0.0121
_diffrn_reflns_av_R_equivalents  0.0131
_diffrn_reflns_limit_h_min       -4
_diffrn_reflns_limit_h_max       4
_diffrn_reflns_limit_k_min       -6
_diffrn_reflns_limit_k_max       6
_diffrn_reflns_limit_l_min       -6
_diffrn_reflns_limit_l_max       6
_diffrn_reflns_theta_min         3.973
_diffrn_reflns_theta_max         27.813
_diffrn_reflns_theta_full        25.242
_diffrn_measured_fraction_theta_max 1.000
_diffrn_measured_fraction_theta_full 1.000
_diffrn_reflns_Laue_measured_fraction_max 1.000
_diffrn_reflns_Laue_measured_fraction_full 1.000
_diffrn_reflns_point_group_measured_fraction_max 1.000
_diffrn_reflns_point_group_measured_fraction_full 1.000
_reflns_number_total             411
_reflns_number_gt                401
_reflns_threshold_expression     'I > 2\s(I)'
_reflns_Friedel_coverage         0.000
_reflns_Friedel_fraction_max     .
_reflns_Friedel_fraction_full    .

_reflns_special_details          
;
 Reflections were merged by SHELXL according to the crystal
 class for the calculation of statistics and refinement.
 
 _reflns_Friedel_fraction is defined as the number of unique
 Friedel pairs measured divided by the number that would be
 possible theoretically, ignoring centric projections and
 systematic absences.
;

_computing_data_collection       'SMART (Bruker, 2013)'
_computing_cell_refinement       'SAINT (Bruker, 2013)'
_computing_data_reduction        'SAINT (Bruker, 2013)'
_computing_structure_solution    'SHELXS-1013 (Sheldrick, 2013)'
_computing_structure_refinement  'SHELXL-2014/7 (Sheldrick, 2014)'
_computing_molecular_graphics    'ORTEP-III (Burnett & Johnson, 1996)'
_computing_publication_material  'REPORT (Bruker, 2013)'


_refine_special_details          
;
 Crystal specimen turned out to be 6 component twin. Major
component, however, contained 1740 reflections, while other
had much smaller number ranging from 215 (domain 3) to 641
(domain 4). Structure solution was carried out using the 
main domain only. 


;
_refine_ls_structure_factor_coef Fsqd
_refine_ls_matrix_type           full
_refine_ls_weighting_scheme      calc
_refine_ls_weighting_details     
'w=1/[\s^2^(Fo^2^)+(0.0430P)^2^+0.0210P] where P=(Fo^2^+2Fc^2^)/3'
_atom_sites_solution_primary     ?
_atom_sites_solution_secondary   ?
_atom_sites_solution_hydrogens   difmap
_refine_ls_hydrogen_treatment    refall
_refine_ls_extinction_method     SHELXL
_refine_ls_extinction_coef       0.47(11)
_refine_ls_extinction_expression Fc^*^=kFc[1+0.001xFc^2^\l^3^/sin(2\q)]^-1/4^
_refine_ls_number_reflns         411
_refine_ls_number_parameters     37
_refine_ls_number_restraints     0
_refine_ls_R_factor_all          0.0272
_refine_ls_R_factor_gt           0.0265
_refine_ls_wR_factor_ref         0.0796
_refine_ls_wR_factor_gt          0.0789
_refine_ls_goodness_of_fit_ref   1.211
_refine_ls_restrained_S_all      1.211
_refine_ls_shift/su_max          0.000
_refine_ls_shift/su_mean         0.000

loop_
_atom_site_label
_atom_site_type_symbol
_atom_site_fract_x
_atom_site_fract_y
_atom_site_fract_z
_atom_site_U_iso_or_equiv
_atom_site_adp_type
_atom_site_occupancy
_atom_site_site_symmetry_order
_atom_site_calc_flag
_atom_site_refinement_flags_posn
_atom_site_refinement_flags_adp
_atom_site_refinement_flags_occupancy
_atom_site_disorder_assembly
_atom_site_disorder_group
C1 C 0.1420(3) 0.50735(19) 0.63607(17) 0.0106(3) Uani 1 1 d . . . . .
H2N H -0.164(5) 0.135(3) 0.691(3) 0.022(4) Uiso 1 1 d . . . . .
N1 N 0.0428(2) 0.27681(17) 0.76303(16) 0.0131(3) Uani 1 1 d . . . . .
O1 O 0.4344(2) 0.72197(14) 0.71779(13) 0.0135(3) Uani 1 1 d . . . . .
H1N1 H 0.205(5) 0.273(3) 0.922(3) 0.021(3) Uiso 1 1 d . . . . .

loop_
_atom_site_aniso_label
_atom_site_aniso_U_11
_atom_site_aniso_U_22
_atom_site_aniso_U_33
_atom_site_aniso_U_23
_atom_site_aniso_U_13
_atom_site_aniso_U_12
C1 0.0099(5) 0.0120(5) 0.0099(5) 0.0006(3) 0.0018(3) 0.0037(3)
N1 0.0127(5) 0.0121(5) 0.0113(5) 0.0028(3) -0.0002(3) 0.0009(3)
O1 0.0127(4) 0.0120(4) 0.0123(4) 0.0018(3) 0.0001(3) 0.0002(3)

_geom_special_details            
;
 All esds (except the esd in the dihedral angle between two l.s. planes)
 are estimated using the full covariance matrix.  The cell esds are taken
 into account individually in the estimation of esds in distances, angles
 and torsion angles; correlations between esds in cell parameters are only
 used when they are defined by crystal symmetry.  An approximate (isotropic)
 treatment of cell esds is used for estimating esds involving l.s. planes.
;

loop_
_geom_bond_atom_site_label_1
_geom_bond_atom_site_label_2
_geom_bond_distance
_geom_bond_site_symmetry_2
_geom_bond_publ_flag
C1 O1 1.2397(12) . ?
C1 N1 1.3226(11) . ?
C1 C1 1.5428(18) 2_566 ?
N1 H2N 0.862(17) . ?
N1 H1N1 0.908(16) . ?

loop_
_geom_angle_atom_site_label_1
_geom_angle_atom_site_label_2
_geom_angle_atom_site_label_3
_geom_angle
_geom_angle_site_symmetry_1
_geom_angle_site_symmetry_3
_geom_angle_publ_flag
O1 C1 N1 125.60(9) . . ?
O1 C1 C1 120.23(10) . 2_566 ?
N1 C1 C1 114.17(10) . 2_566 ?
C1 N1 H2N 119.8(10) . . ?
C1 N1 H1N1 117.4(9) . . ?
H2N N1 H1N1 122.7(14) . . ?

loop_
_geom_hbond_atom_site_label_D
_geom_hbond_atom_site_label_H
_geom_hbond_atom_site_label_A
_geom_hbond_distance_DH
_geom_hbond_distance_HA
_geom_hbond_distance_DA
_geom_hbond_angle_DHA
_geom_hbond_site_symmetry_A
N1 H1N1 O1 0.908(16) 2.030(16) 2.9371(11) 178.1(13) 2_667
N1 H2N O1 0.862(17) 2.149(16) 2.9228(12) 149.2(13) 1_445
N1 H2N O1 0.862(17) 2.149(16) 2.9228(12) 149.2(13) 1_445
N1 H2N O1 0.862(17) 2.149(16) 2.9228(12) 149.2(13) 1_445
N1 H1N1 O1 0.908(16) 2.030(16) 2.9371(11) 178.1(13) 2_667
N1 H2N O1 0.862(17) 2.149(16) 2.9228(12) 149.2(13) 1_445
N1 H1N1 O1 0.908(16) 2.030(16) 2.9371(11) 178.1(13) 2_667
N1 H2N O1 0.862(17) 2.149(16) 2.9228(12) 149.2(13) 1_445
N1 H1N1 O1 0.908(16) 2.030(16) 2.9371(11) 178.1(13) 2_667
N1 H1N1 O1 0.908(16) 2.030(16) 2.9371(11) 178.1(13) 2_667
N1 H1N1 O1 0.908(16) 2.030(16) 2.9371(11) 178.1(13) 2_667
N1 H2N O1 0.862(17) 2.149(16) 2.9228(12) 149.2(13) 1_445
N1 H1N1 O1 0.908(16) 2.030(16) 2.9371(11) 178.1(13) 2_667
N1 H2N O1 0.862(17) 2.149(16) 2.9228(12) 149.2(13) 1_445
N1 H1N1 O1 0.908(16) 2.030(16) 2.9371(11) 178.1(13) 2_667
N1 H2N O1 0.862(17) 2.149(16) 2.9228(12) 149.2(13) 1_445
N1 H2N O1 0.862(17) 2.149(16) 2.9228(12) 149.2(13) 1_445
N1 H1N1 O1 0.908(16) 2.030(16) 2.9371(11) 178.1(13) 2_667

_refine_diff_density_max         0.489
_refine_diff_density_min         -0.208
_refine_diff_density_rms         0.045

_shelxl_version_number           2014-3

_shelx_res_file                  
;
TITL MAIN in P-1
CELL 0.71073 3.5592 4.8685 5.2934 90.842 103.472 106.075
ZERR 2.00 0.0007 0.0010 0.0010 0.002 0.002 0.002
LATT 1
SFAC C  H  N  O
UNIT 2  2  2  2
L.S. 8
ACTA
BOND $H
FMAP 2
PLAN 6
HTAB N1 O1_$1
HTAB N1 O1_$2
HTAB N1 O1_$2
HTAB N1 O1_$2
HTAB N1 O1_$1
HTAB N1 O1_$2
HTAB N1 O1_$1
HTAB N1 O1_$2
EQIV $2 x-1, y-1, z
HTAB N1 O1_$1
SIZE 0.268 0.282 0.533
HTAB
CONF
DANG 1.915102 0.040000 C1 H1
EQIV $1 -x+1, -y+1, -z+2
HTAB N1 O1_$1
HTAB N1 O1_$1
HTAB N1 O1_$2
HTAB N1 O1_$1
HTAB N1 O1_$2
HTAB N1 O1_$1
HTAB N1 O1_$2
HTAB N1 O1_$2
HTAB N1 O1_$1
DFIX 0.860000 0.020000 N1 H1
TEMP -153.800
WGHT    0.043000    0.021000
EXTI    0.470058
FVAR       1.13146
C1    1    0.141967    0.507345    0.636071    11.00000    0.00993    0.01202 =
         0.00986    0.00065    0.00184    0.00372
H2N   2   -0.164404    0.135288    0.691341    11.00000    0.02247
N1    3    0.042759    0.276809    0.763030    11.00000    0.01273    0.01210 =
         0.01127    0.00276   -0.00020    0.00086
O1    4    0.434398    0.721973    0.717788    11.00000    0.01269    0.01198 =
         0.01225    0.00179    0.00007    0.00025
H1N1  2    0.205056    0.273362    0.922372    11.00000    0.02085
HKLF 4 1 1 0 0 0 1 0 0 0 1

REM  MAIN in P-1
REM R1 =  0.0265 for     401 Fo > 4sig(Fo)  and  0.0272 for all     411 data
REM     37 parameters refined using      0 restraints

END

WGHT      0.0404      0.0224

REM Instructions for potential hydrogen bonds
HTAB N1 O1_$2
HTAB N1 O1_$1

REM Highest difference peak  0.489,  deepest hole -0.208,  1-sigma level  0.045
Q1    1   0.0000  0.5000  0.5000  10.50000  0.05    0.49
Q2    1   0.1115  0.3836  0.6948  11.00000  0.05    0.23
Q3    1   0.4794  0.8546  0.6064  11.00000  0.05    0.13
Q4    1   0.3956  0.8782  0.7287  11.00000  0.05    0.11
Q5    1   0.5952  0.7486  0.8545  11.00000  0.05    0.10
Q6    1   0.3589  0.5720  0.6389  11.00000  0.05    0.10
;
_shelx_res_checksum              80668

_shelx_hkl_file                  
;
  -1   0   0   24.42    0.39
  -1   0   0   25.44    0.35
   1   0   0   25.81    0.36
   1   0   0   25.50    0.37
  -2   0   0   92.68    1.33
  -2   0   0   92.87    1.29
   2   0   0   92.03    1.29
   2   0   0   94.01    1.26
  -3   0   0    5.42    0.20
   3   0   0    5.41    0.14
   3   0   0    5.41    0.17
  -4   0   0    2.32    0.15
   4   0   0    2.24    0.13
   4  -1   0   62.15    0.98
  -4   1   0   61.55    1.07
   3  -1   0    0.77    0.06
   3  -1   0    0.81    0.05
  -3   1   0    0.80    0.07
   2  -1   0   68.92    0.96
   2  -1   0   70.59    0.97
  -2   1   0   68.19    1.01
  -2   1   0   68.50    0.95
   1  -1   0   55.16    0.78
   1  -1   0   57.44    0.82
  -1   1   0   54.67    0.75
  -1   1   0   54.08    0.77
   0  -1   0  199.10    4.17
   0  -1   0  201.35    4.16
   0  -1   0  194.00    4.67
   0  -1   0  201.06    4.21
  -1  -1   0    4.14    0.08
  -1  -1   0    4.01    0.12
   1   1   0    4.08    0.08
  -2  -1   0   80.82    1.11
  -2  -1   0   80.51    1.21
   2   1   0   82.05    1.10
   2   1   0   79.52    1.16
  -3  -1   0   16.92    0.41
   3   1   0   16.55    0.36
  -4  -1   0    9.17    0.33
   4   1   0    8.82    0.28
   4  -2   0   28.39    0.50
  -4   2   0   27.93    0.59
   3  -2   0   10.07    0.23
  -3   2   0   10.60    0.22
  -3   2   0   10.46    0.27
   2  -2   0  174.84    2.36
   2  -2   0  176.91    2.55
  -2   2   0  177.29    2.40
  -2   2   0  177.91    2.43
   1  -2   0   35.52    0.52
   1  -2   0   36.22    0.49
  -1   2   0   35.40    0.52
  -1   2   0   35.84    0.53
   0  -2   0  182.49    2.60
   0  -2   0  188.86    2.79
   0  -2   0  192.87    2.71
   0  -2   0  194.67    2.72
  -1  -2   0   18.73    0.29
  -1  -2   0   18.08    0.35
  -1  -2   0   18.55    0.32
   1   2   0   18.28    0.29
  -2  -2   0   27.73    0.54
   2   2   0   27.95    0.49
   2   2   0   27.64    0.43
  -3  -2   0   12.88    0.37
   3   2   0   12.99    0.33
   4  -3   0    1.57    0.09
  -4   3   0    1.52    0.11
   3  -3   0   20.82    0.39
  -3   3   0   20.47    0.38
  -3   3   0   20.29    0.41
   2  -3   0    3.96    0.12
  -2   3   0    3.92    0.12
  -2   3   0    4.02    0.13
   1  -3   0   17.13    0.30
   1  -3   0   17.04    0.27
   1  -3   0   17.17    0.30
  -1   3   0   17.24    0.31
   0  -3   0    3.91    0.13
   0  -3   0    4.14    0.11
   0  -3   0    4.05    0.11
   0  -3   0    4.09    0.11
  -1  -3   0   10.45    0.20
  -1  -3   0   10.25    0.23
  -1  -3   0   10.59    0.27
   1   3   0   10.34    0.20
  -2  -3   0   70.84    1.16
   2   3   0   71.08    1.09
  -3  -3   0    2.82    0.17
   3   3   0    2.93    0.15
   4  -4   0    1.52    0.10
  -4   4   0    1.64    0.10
   3  -4   0    5.62    0.18
  -3   4   0    5.59    0.17
   2  -4   0   68.22    1.01
  -2   4   0   66.98    1.01
  -2   4   0   69.09    1.02
   1  -4   0    3.64    0.12
   1  -4   0    3.61    0.12
  -1   4   0    3.57    0.13
   0  -4   0  117.09    1.60
   0  -4   0  116.84    1.61
   0  -4   0  116.26    1.66
   0  -4   0  114.85    1.61
  -1  -4   0    2.24    0.13
   1   4   0    2.14    0.11
   1   4   0    2.27    0.09
  -2  -4   0    0.15    0.05
   2   4   0    0.06    0.03
   3  -5   0    0.94    0.08
  -3   5   0    1.04    0.08
   2  -5   0    0.85    0.07
  -2   5   0    0.90    0.07
   1  -5   0    4.83    0.15
  -1   5   0    4.86    0.16
  -1   5   0    4.58    0.17
   0  -5   0   68.78    1.02
   0  -5   0   67.67    1.02
   0   5   0   68.39    1.09
  -1  -5   0    0.53    0.07
   1   5   0    0.57    0.08
   2  -6   0   19.83    0.42
  -2   6   0   20.18    0.43
   1  -6   0    6.09    0.19
  -1   6   0    6.11    0.20
   0   6   0    0.63    0.06
   0   6  -1    4.85    0.17
   0  -6   1    4.64    0.17
  -1   6  -1    5.59    0.19
   1  -6   1    5.90    0.19
  -2   6  -1    5.59    0.20
   2  -6   1    5.61    0.20
   1   5  -1    0.58    0.07
  -1  -5   1    0.58    0.08
   0   5  -1    8.12    0.21
   0  -5   1    8.43    0.22
  -1   5  -1   37.97    0.64
   1  -5   1   38.35    0.64
  -2   5  -1    2.48    0.12
   2  -5   1    2.41    0.11
  -3   5  -1   54.38    0.89
   3  -5   1   54.92    0.89
   2   4  -1    0.61    0.08
  -2  -4   1    0.63    0.08
   1   4  -1   90.40    1.28
   1   4  -1   88.81    1.37
  -1  -4   1   91.31    1.33
  -1  -4   1   90.50    1.36
   0   4  -1    5.03    0.14
   0  -4   1    5.40    0.15
   0  -4   1    5.30    0.15
  -1   4  -1    1.96    0.09
   1  -4   1    2.00    0.09
  -2   4  -1    1.26    0.08
   2  -4   1    1.20    0.07
  -3   4  -1   29.79    0.54
   3  -4   1   29.85    0.53
  -4   4  -1    0.05    0.03
   4  -4   1    0.02    0.03
   3   3  -1    0.02    0.03
  -3  -3   1    0.04    0.04
   2   3  -1    2.50    0.09
  -2  -3   1    2.48    0.13
  -2  -3   1    2.54    0.12
   1   3  -1  141.13    2.02
  -1  -3   1  133.40    1.87
  -1  -3   1  141.61    1.95
  -1  -3   1  142.22    1.93
   0   3  -1    5.07    0.12
   0  -3   1    4.82    0.13
   0  -3   1    4.92    0.13
   0  -3   1    4.86    0.13
  -1   3  -1  174.51    2.33
  -1   3  -1  173.43    2.46
   1  -3   1  173.61    2.49
   1  -3   1  174.87    2.45
  -2   3  -1   11.97    0.23
   2  -3   1   11.76    0.24
   2  -3   1   12.17    0.29
  -3   3  -1    5.94    0.17
   3  -3   1    6.00    0.17
   4  -3   1    0.07    0.03
   3   2  -1   56.30    0.85
   3   2  -1   56.29    0.92
  -3  -2   1   56.86    0.99
   2   2  -1   10.47    0.21
  -2  -2   1   10.35    0.25
  -2  -2   1   10.33    0.27
   1   2  -1    8.13    0.16
  -1  -2   1    8.12    0.19
  -1  -2   1    7.92    0.18
  -1  -2   1    7.92    0.14
   0   2  -1   34.97    0.50
   0  -2   1   34.76    0.50
   0  -2   1   34.52    0.51
   0  -2   1   34.59    0.51
  -1   2  -1    8.73    0.15
  -1   2  -1    8.40    0.17
   1  -2   1    8.58    0.17
   1  -2   1    9.03    0.17
  -2   2  -1   48.75    0.73
  -2   2  -1   47.71    0.72
   2  -2   1   49.17    0.71
   2  -2   1   48.76    0.72
  -3   2  -1    5.27    0.15
  -3   2  -1    5.10    0.17
   3  -2   1    5.12    0.16
   3  -2   1    5.09    0.14
  -4   2  -1    4.23    0.19
   4   1  -1   11.17    0.31
  -4  -1   1   11.27    0.37
   3   1  -1   18.18    0.38
   3   1  -1   18.30    0.33
  -3  -1   1   17.66    0.42
   2   1  -1   12.74    0.23
  -2  -1   1   12.86    0.26
  -2  -1   1   12.56    0.29
   1   1  -1  188.42    2.65
  -1  -1   1  191.95    2.80
  -1  -1   1  184.99    2.67
   0   1  -1   51.29    0.69
   0  -1   1   49.17    0.69
   0  -1   1   51.90    0.79
   0  -1   1   50.51    0.71
  -1   1  -1  460.50    8.90
  -1   1  -1  464.79    9.61
   1  -1   1  451.64   10.00
   1  -1   1  452.10    9.01
  -2   1  -1   16.37    0.28
  -2   1  -1   16.22    0.31
   2  -1   1   16.31    0.27
   2  -1   1   16.48    0.30
  -3   1  -1   51.13    0.85
  -3   1  -1   50.58    0.76
   3  -1   1   52.15    0.81
   3  -1   1   51.81    0.76
  -4   1  -1    7.18    0.26
   4  -1   1    7.13    0.23
   4   0  -1   11.02    0.29
   4   0  -1   11.20    0.26
  -4   0   1   11.29    0.35
   3   0  -1   37.42    0.62
   3   0  -1   38.34    0.59
  -3   0   1   37.51    0.68
   2   0  -1    1.99    0.08
   2   0  -1    1.99    0.07
  -2   0   1    1.90    0.04
  -2   0   1    1.96    0.09
   1   0  -1  175.22    2.82
   1   0  -1  176.05    2.48
  -1   0   1  176.79    2.45
  -1   0   1  171.68    2.57
   0   0  -1   72.77    1.04
   0   0  -1   74.25    1.03
   0   0   1   74.90    1.13
   0   0   1   73.95    1.10
  -1   0  -1  128.96    2.00
   1   0   1  132.36    1.87
   1   0   1  136.58    1.82
  -2   0  -1    0.33    0.04
  -2   0  -1    0.30    0.03
   2   0   1    0.32    0.02
   2   0   1    0.32    0.04
  -3   0  -1  103.93    1.57
   3   0   1  104.04    1.52
  -4   0  -1    0.14    0.05
   4   0   1    0.12    0.05
   4  -1  -1    2.83    0.12
  -4   1   1    3.05    0.17
   3  -1  -1   34.34    0.54
   3  -1  -1   33.93    0.54
  -3   1   1   33.87    0.63
   2  -1  -1    7.99    0.17
   2  -1  -1    8.21    0.16
  -2   1   1    8.06    0.20
  -2   1   1    8.02    0.15
   1  -1  -1  970.01   16.20
   1  -1  -1 1000.00   15.67
  -1   1   1  993.30   13.67
  -1   1   1  899.09   18.50
   0  -1  -1   22.98    0.32
   0  -1  -1   22.48    0.34
   0  -1  -1   23.17    0.36
   0   1   1   23.41    0.33
  -1  -1  -1  152.48    2.42
  -1  -1  -1  155.46    2.14
   1   1   1  154.09    2.38
   1   1   1  156.83    2.07
  -2  -1  -1    8.41    0.24
  -2  -1  -1    8.55    0.17
   2   1   1    8.84    0.17
  -3  -1  -1    1.86    0.12
   3   1   1    1.74    0.10
   4  -2  -1    1.29    0.08
  -4   2   1    1.31    0.11
   3  -2  -1   23.48    0.41
  -3   2   1   23.73    0.39
  -3   2   1   23.37    0.47
   2  -2  -1   20.36    0.35
   2  -2  -1   20.89    0.30
  -2   2   1   20.62    0.33
  -2   2   1   20.52    0.39
   1  -2  -1   81.67    1.11
   1  -2  -1   81.19    1.15
  -1   2   1   80.61    1.23
   0  -2  -1    3.34    0.09
   0  -2  -1    3.50    0.08
   0  -2  -1    3.34    0.11
   0   2   1    3.43    0.08
  -1  -2  -1   94.13    1.27
  -1  -2  -1   92.14    1.35
   1   2   1   93.34    1.30
   1   2   1   92.07    1.81
  -2  -2  -1   19.76    0.44
   2   2   1   20.30    0.40
  -3  -2  -1   14.73    0.41
   3   2   1   14.70    0.36
   4  -3  -1    6.59    0.20
  -4   3   1    6.68    0.25
   3  -3  -1   53.19    0.81
  -3   3   1   52.45    0.87
  -3   3   1   51.81    0.79
   2  -3  -1   14.39    0.28
   2  -3  -1   14.71    0.28
  -2   3   1   14.64    0.32
   1  -3  -1   66.76    0.95
   1  -3  -1   65.77    0.94
  -1   3   1   66.66    0.89
  -1   3   1   67.23    1.00
   0  -3  -1   12.77    0.29
   0  -3  -1   12.96    0.24
   0  -3  -1   12.96    0.22
   0   3   1   12.87    0.23
  -1  -3  -1   30.42    0.48
  -1  -3  -1   30.19    0.57
   1   3   1   29.88    0.51
  -2  -3  -1   13.42    0.37
   2   3   1   13.23    0.32
  -3  -3  -1    1.64    0.14
   3   3   1    2.13    0.13
   4  -4  -1    8.90    0.25
  -4   4   1    8.92    0.29
   3  -4  -1    1.48    0.09
  -3   4   1    1.46    0.08
  -3   4   1    1.40    0.10
   2  -4  -1    6.39    0.17
   2  -4  -1    6.22    0.17
  -2   4   1    6.41    0.20
   1  -4  -1    0.38    0.05
   1  -4  -1    0.44    0.04
  -1   4   1    0.38    0.05
   0  -4  -1    7.11    0.18
   0   4   1    6.96    0.17
   0   4   1    7.28    0.22
  -1  -4  -1   63.16    1.05
  -1  -4  -1   62.62    0.93
   1   4   1   61.38    0.96
  -2  -4  -1    2.87    0.17
   2   4   1    2.92    0.14
   3  -5  -1   25.03    0.48
  -3   5   1   24.66    0.48
   2  -5  -1    2.74    0.12
  -2   5   1    2.71    0.14
  -2   5   1    2.75    0.12
   1  -5  -1   67.11    1.03
   1  -5  -1   67.42    1.01
  -1   5   1   69.29    1.10
   0  -5  -1    1.95    0.10
   0   5   1    2.04    0.13
  -1  -5  -1    0.21    0.06
   1   5   1    0.16    0.04
   2  -6  -1    3.87    0.15
  -2   6   1    3.91    0.16
   1  -6  -1   39.90    0.70
  -1   6   1   39.21    0.96
   0  -6   2   19.32    0.42
  -1   6  -2    4.82    0.17
   1  -6   2    4.74    0.18
   1   5  -2    5.94    0.19
  -1  -5   2    5.75    0.20
   0   5  -2    9.24    0.22
   0  -5   2    9.36    0.24
   0  -5   2    9.36    0.25
  -1   5  -2    7.19    0.20
   1  -5   2    7.24    0.21
  -2   5  -2    3.85    0.15
   2  -5   2    4.10    0.16
  -3   5  -2    7.88    0.24
   3  -5   2    7.83    0.24
   2   4  -2    0.35    0.05
  -2  -4   2    0.29    0.06
   1   4  -2    9.90    0.23
  -1  -4   2    9.71    0.26
   0   4  -2   58.34    0.87
   0  -4   2   59.69    0.90
  -1   4  -2    2.27    0.10
   1  -4   2    2.41    0.10
   1  -4   2    2.21    0.10
  -2   4  -2   98.80    1.43
   2  -4   2   98.98    1.42
  -3   4  -2    4.94    0.18
   3  -4   2    4.97    0.17
   3   3  -2    0.54    0.05
   3   3  -2    0.51    0.08
  -3  -3   2    0.69    0.08
   2   3  -2   86.10    1.24
  -2  -3   2   86.82    1.30
  -2  -3   2   86.73    1.33
   1   3  -2    4.83    0.14
   1   3  -2    5.04    0.11
  -1  -3   2    4.86    0.15
   0   3  -2    4.05    0.11
   0  -3   2    3.93    0.12
   0  -3   2    4.19    0.13
  -1   3  -2    1.38    0.07
   1  -3   2    1.38    0.07
   1  -3   2    1.27    0.07
  -2   3  -2   47.88    0.74
   2  -3   2   47.45    0.73
   2  -3   2   48.02    0.74
  -3   3  -2    0.65    0.06
   3  -3   2    0.63    0.06
   3   2  -2    2.70    0.11
  -3  -2   2    2.80    0.15
  -3  -2   2    2.81    0.13
   2   2  -2  113.77    1.60
  -2  -2   2  115.80    1.65
  -2  -2   2  118.47    1.69
   1   2  -2    5.38    0.10
   1   2  -2    5.38    0.13
  -1  -2   2    5.16    0.14
  -1  -2   2    5.39    0.14
   0   2  -2  270.47    3.73
   0  -2   2  269.60    3.94
   0  -2   2  271.49    3.79
  -1   2  -2   21.04    0.35
   1  -2   2   21.00    0.36
   1  -2   2   21.48    0.35
  -2   2  -2   19.24    0.35
  -2   2  -2   18.74    0.33
   2  -2   2   18.87    0.33
   2  -2   2   19.15    0.35
  -3   2  -2    0.36    0.05
   3  -2   2    0.35    0.05
   3  -2   2    0.39    0.06
   4  -2   2    5.40    0.20
   4   1  -2   34.34    0.64
   4   1  -2   34.98    0.60
  -4  -1   2   34.06    0.73
   3   1  -2    7.11    0.19
  -3  -1   2    7.35    0.21
  -3  -1   2    7.31    0.24
   2   1  -2    4.18    0.12
  -2  -1   2    4.18    0.15
  -2  -1   2    4.09    0.13
   1   1  -2   30.03    0.41
   1   1  -2   29.72    0.45
  -1  -1   2   29.90    0.46
  -1  -1   2   29.57    0.47
   0   1  -2    7.99    0.15
   0  -1   2    7.89    0.13
   0  -1   2    7.72    0.16
  -1   1  -2   87.12    1.27
  -1   1  -2   87.14    1.19
   1  -1   2   86.15    1.16
   1  -1   2   85.15    1.28
  -2   1  -2   11.12    0.24
   2  -1   2   11.56    0.25
   2  -1   2   11.31    0.20
  -3   1  -2    7.53    0.19
  -3   1  -2    7.76    0.23
   3  -1   2    7.49    0.22
   4  -1   2   38.05    0.71
   4   0  -2   10.09    0.27
   4   0  -2    9.88    0.25
  -4   0   2    9.81    0.33
   3   0  -2    5.98    0.17
   3   0  -2    5.93    0.17
  -3   0   2    5.73    0.21
   2   0  -2   66.33    0.94
  -2   0   2   64.88    0.94
  -2   0   2   66.65    1.00
   1   0  -2   35.44    0.48
   1   0  -2   35.38    0.51
  -1   0   2   35.11    0.51
  -1   0   2   34.64    0.54
   0   0  -2  485.43    8.20
   0   0  -2  472.34    9.49
   0   0   2  463.41    9.01
   0   0   2  456.14    9.14
  -1   0  -2   20.83    0.36
  -1   0  -2   21.09    0.34
   1   0   2   21.40    0.36
   1   0   2   21.02    0.29
  -2   0  -2   78.87    1.18
  -2   0  -2   79.98    1.12
  -3   0  -2    9.41    0.28
   3   0   2    9.36    0.26
   4  -1  -2   15.17    0.33
  -4   1   2   15.19    0.42
   3  -1  -2    1.19    0.07
  -3   1   2    1.23    0.09
   2  -1  -2   66.97    0.89
   2  -1  -2   65.15    0.93
  -2   1   2   63.83    0.98
  -2   1   2   65.59    0.90
   1  -1  -2   31.06    0.45
   1  -1  -2   30.52    0.45
  -1   1   2   31.16    0.43
  -1   1   2   30.57    0.50
   0  -1  -2   94.86    1.29
   0  -1  -2   94.34    1.32
   0   1   2   95.05    1.51
   0   1   2   96.60    1.39
  -1  -1  -2    0.34    0.04
  -1  -1  -2    0.32    0.04
   1   1   2    0.30    0.03
  -2  -1  -2  136.10    1.95
  -2  -1  -2  133.10    1.84
   2   1   2  135.14    1.90
  -3  -1  -2    0.09    0.04
   3   1   2    0.01    0.02
   4  -2  -2   11.64    0.28
  -4   2   2   11.71    0.35
   3  -2  -2    3.71    0.13
  -3   2   2    3.75    0.16
   2  -2  -2  293.76    4.26
   2  -2  -2  305.46    4.24
  -2   2   2  302.02    4.50
   1  -2  -2    6.11    0.13
   1  -2  -2    6.22    0.14
  -1   2   2    6.30    0.10
  -1   2   2    6.19    0.17
   0  -2  -2  103.04    1.40
   0  -2  -2  101.55    1.41
   0   2   2  102.01    1.47
   0   2   2  104.21    1.39
  -1  -2  -2    9.95    0.21
  -1  -2  -2    9.85    0.26
   1   2   2    9.59    0.22
  -2  -2  -2    1.32    0.10
  -2  -2  -2    1.38    0.07
   2   2   2    1.29    0.09
  -3  -2  -2    1.87    0.14
   3   2   2    1.96    0.13
   4  -3  -2    8.83    0.25
  -4   3   2    8.86    0.30
   3  -3  -2    7.84    0.21
  -3   3   2    8.04    0.19
  -3   3   2    8.02    0.25
   2  -3  -2   24.70    0.41
   2  -3  -2   23.38    0.41
  -2   3   2   24.22    0.47
   1  -3  -2    1.95    0.08
   1  -3  -2    1.99    0.07
  -1   3   2    1.85    0.10
   0  -3  -2   49.12    0.74
   0   3   2   49.43    0.81
   0   3   2   49.34    0.72
  -1  -3  -2   19.02    0.43
  -1  -3  -2   18.56    0.35
   1   3   2   18.21    0.36
  -2  -3  -2   16.99    0.44
   2   3   2   16.39    0.38
   4  -4  -2   18.58    0.41
  -4   4   2   18.05    0.47
   3  -4  -2    5.84    0.18
  -3   4   2    6.06    0.22
  -3   4   2    6.05    0.18
   2  -4  -2   14.95    0.31
   2  -4  -2   15.23    0.31
  -2   4   2   15.54    0.37
   1  -4  -2    5.75    0.17
   1  -4  -2    6.13    0.15
  -1   4   2    6.01    0.21
   0  -4  -2   23.18    0.43
   0   4   2   23.82    0.51
   0   4   2   23.93    0.51
  -1  -4  -2   11.97    0.36
  -1  -4  -2   11.99    0.27
   1   4   2   11.79    0.28
  -2  -4  -2    2.37    0.17
   2   4   2    2.83    0.15
   3  -5  -2    2.92    0.13
  -3   5   2    2.82    0.16
  -3   5   2    2.88    0.13
   2  -5  -2    0.03    0.02
   2  -5  -2    0.05    0.03
  -2   5   2    0.08    0.05
   1  -5  -2    3.97    0.15
  -1   5   2    3.95    0.18
   0  -5  -2   39.97    0.69
   0   5   2   41.74    0.80
  -1  -5  -2    2.57    0.17
   2  -6  -2   35.66    0.65
   2  -6  -2   33.49    0.74
  -2   6   2   35.08    0.72
   1  -6  -2    1.29    0.10
  -1   6   2    1.44    0.12
   1   5  -3   22.19    0.46
  -1  -5   3   22.68    0.49
   0   5  -3    6.18    0.18
   0  -5   3    6.09    0.20
   0  -5   3    6.44    0.21
  -1   5  -3   10.63    0.26
   1  -5   3   10.99    0.28
  -2   5  -3    1.27    0.09
   2  -5   3    1.24    0.09
   2   4  -3    5.72    0.19
  -2  -4   3    5.98    0.22
   1   4  -3   11.23    0.27
  -1  -4   3   11.32    0.29
   0   4  -3    7.99    0.19
   0  -4   3    7.63    0.22
   0  -4   3    7.72    0.21
  -1   4  -3    5.25    0.16
   1  -4   3    5.46    0.17
   1  -4   3    5.39    0.17
  -2   4  -3   12.66    0.30
   2  -4   3   12.70    0.30
   2  -4   3   12.74    0.29
  -3   4  -3   18.45    0.41
   3  -4   3   18.89    0.39
   3   3  -3    0.07    0.03
  -3  -3   3    0.03    0.03
  -3  -3   3    0.01    0.03
   2   3  -3    7.81    0.21
  -2  -3   3    8.05    0.24
   1   3  -3   61.80    0.92
  -1  -3   3   60.69    0.95
   0   3  -3    2.10    0.08
   0  -3   3    2.09    0.09
   0  -3   3    2.00    0.10
  -1   3  -3  150.38    2.04
   1  -3   3  149.60    2.03
   1  -3   3  144.50    2.05
  -2   3  -3    6.40    0.19
   2  -3   3    6.09    0.19
   2  -3   3    6.41    0.17
  -3   3  -3    4.73    0.17
   3  -3   3    4.66    0.18
   3   2  -3   64.28    0.99
  -3  -2   3   64.58    1.09
  -3  -2   3   64.85    1.04
   2   2  -3    4.25    0.14
  -2  -2   3    4.07    0.15
  -2  -2   3    3.96    0.15
   1   2  -3    4.76    0.13
   1   2  -3    4.99    0.11
  -1  -2   3    4.70    0.13
  -1  -2   3    4.84    0.15
   0   2  -3    1.74    0.07
   0  -2   3    1.75    0.07
   0  -2   3    1.64    0.08
  -1   2  -3   61.71    0.90
   1  -2   3   60.74    0.92
   1  -2   3   61.15    0.88
  -2   2  -3    2.48    0.11
   2  -2   3    2.58    0.11
   2  -2   3    2.64    0.09
  -3   2  -3   15.12    0.33
   3  -2   3   15.54    0.36
   4   1  -3    2.59    0.13
   4   1  -3    2.62    0.14
  -4  -1   3    2.64    0.17
   3   1  -3   68.06    1.02
  -3  -1   3   67.81    1.04
  -3  -1   3   66.99    1.12
   2   1  -3    3.96    0.13
  -2  -1   3    4.10    0.15
  -2  -1   3    3.98    0.13
   1   1  -3  191.94    2.70
   1   1  -3  190.01    2.65
  -1  -1   3  196.15    2.87
  -1  -1   3  190.91    2.77
   0   1  -3   23.64    0.38
   0   1  -3   23.30    0.37
   0  -1   3   23.34    0.40
   0  -1   3   24.56    0.36
  -1   1  -3   30.95    0.50
  -1   1  -3   31.61    0.48
   1  -1   3   31.65    0.46
   1  -1   3   31.11    0.52
  -2   1  -3    0.64    0.05
  -2   1  -3    0.63    0.05
   2  -1   3    0.55    0.05
  -3   1  -3    8.77    0.23
   3  -1   3    9.03    0.27
   4   0  -3    3.96    0.16
  -4   0   3    4.24    0.21
   3   0  -3    0.96    0.07
  -3   0   3    0.92    0.08
  -3   0   3    0.91    0.06
   2   0  -3   13.25    0.26
   2   0  -3   13.36    0.20
  -2   0   3   13.13    0.30
  -2   0   3   13.09    0.26
   1   0  -3    2.16    0.08
   1   0  -3    2.24    0.07
  -1   0   3    2.20    0.09
  -1   0   3    2.18    0.08
   0   0  -3   70.94    0.99
   0   0  -3   71.45    0.96
   0   0   3   71.45    1.01
   0   0   3   70.38    1.01
  -1   0  -3   13.62    0.28
  -1   0  -3   13.11    0.26
   1   0   3   13.65    0.28
  -2   0  -3    9.87    0.23
  -2   0  -3    9.95    0.26
   2   0   3    9.39    0.25
  -3   0  -3   54.99    0.94
  -3   0  -3   54.21    0.85
   3   0   3   52.66    0.91
   4  -1  -3    2.17    0.11
  -4   1   3    2.28    0.15
   3  -1  -3   14.37    0.30
  -3   1   3   14.24    0.36
  -3   1   3   13.85    0.27
   2  -1  -3   14.44    0.24
   2  -1  -3   14.65    0.28
  -2   1   3   14.39    0.25
   1  -1  -3  200.11    2.88
   1  -1  -3  203.04    2.73
  -1   1   3  202.30    2.88
  -1   1   3  203.19    3.20
   0  -1  -3   14.23    0.22
   0  -1  -3   14.13    0.26
   0   1   3   14.03    0.30
   0   1   3   14.40    0.26
  -1  -1  -3   84.74    1.21
  -1  -1  -3   84.63    1.26
   1   1   3   85.26    1.23
  -2  -1  -3   10.10    0.29
  -2  -1  -3   10.38    0.24
   2   1   3   10.06    0.26
  -3  -1  -3    2.88    0.16
   3   1   3    2.89    0.15
   4  -2  -3    1.09    0.08
  -4   2   3    0.93    0.10
   3  -2  -3   26.30    0.42
   3  -2  -3   25.61    0.46
  -3   2   3   24.72    0.53
   2  -2  -3    9.57    0.20
   2  -2  -3    9.31    0.21
  -2   2   3    9.60    0.26
   1  -2  -3   32.86    0.49
   1  -2  -3   32.15    0.51
  -1   2   3   31.78    0.57
  -1   2   3   32.82    0.47
   0  -2  -3    0.86    0.05
   0   2   3    0.80    0.07
   0   2   3    0.83    0.05
  -1  -2  -3  121.58    1.79
  -1  -2  -3  122.32    1.69
   1   2   3  119.33    1.71
  -2  -2  -3    0.00    0.01
  -2  -2  -3   -0.02    0.02
   2   2   3    0.00    0.02
   4  -3  -3    2.56    0.13
  -4   3   3    2.26    0.16
   3  -3  -3   92.22    1.30
   3  -3  -3   91.16    1.33
  -3   3   3   90.70    1.44
   2  -3  -3    2.57    0.10
   2  -3  -3    2.55    0.10
  -2   3   3    2.57    0.14
   1  -3  -3   39.31    0.62
  -1   3   3   39.26    0.70
   0  -3  -3    6.99    0.19
   0   3   3    6.97    0.23
   0   3   3    7.05    0.17
  -1  -3  -3    1.03    0.09
  -1  -3  -3    1.03    0.07
   1   3   3    0.90    0.07
  -2  -3  -3    1.64    0.13
   2   3   3    1.64    0.11
   4  -4  -3    3.70    0.16
  -4   4   3    3.63    0.20
   3  -4  -3    9.88    0.25
   3  -4  -3    9.88    0.25
  -3   4   3    9.82    0.32
   2  -4  -3    1.40    0.09
   2  -4  -3    1.62    0.08
  -2   4   3    1.51    0.11
   1  -4  -3   17.03    0.35
  -1   4   3   17.17    0.42
   0  -4  -3   13.35    0.30
   0   4   3   13.08    0.37
  -1  -4  -3   11.92    0.37
  -1  -4  -3   12.01    0.29
   1   4   3   12.02    0.30
   3  -5  -3    3.73    0.15
   3  -5  -3    3.81    0.15
  -3   5   3    3.67    0.20
   2  -5  -3    2.62    0.12
  -2   5   3    2.31    0.15
   1  -5  -3   14.89    0.34
  -1   5   3   14.45    0.41
   0  -5  -3    9.43    0.26
   0   5   3    9.39    0.33
   0   5  -4    1.12    0.09
   0  -5   4    1.08    0.09
  -1   5  -4    0.03    0.02
   1  -5   4   -0.03    0.02
   1  -5   4    0.00    0.02
   2   4  -4   19.15    0.41
  -2  -4   4   18.59    0.45
   1   4  -4    6.14    0.20
  -1  -4   4    6.43    0.22
   0   4  -4   15.52    0.35
   0   4  -4   14.72    0.31
   0  -4   4   14.67    0.35
  -1   4  -4    1.79    0.10
   1  -4   4    1.72    0.11
   1  -4   4    1.87    0.10
  -2   4  -4   30.29    0.58
   2  -4   4   31.04    0.56
   2  -4   4   31.67    0.59
   2   3  -4   10.30    0.27
  -2  -3   4   10.56    0.29
   1   3  -4    7.25    0.20
  -1  -3   4    7.34    0.22
   0   3  -4    6.91    0.19
   0   3  -4    6.46    0.17
   0  -3   4    6.40    0.20
  -1   3  -4   16.47    0.33
   1  -3   4   16.15    0.32
   1  -3   4   15.94    0.35
  -2   3  -4   25.43    0.49
   2  -3   4   25.89    0.51
   2  -3   4   25.63    0.46
   3   2  -4    5.55    0.19
  -3  -2   4    5.60    0.20
  -3  -2   4    5.77    0.23
   2   2  -4   41.83    0.69
  -2  -2   4   42.92    0.72
   1   2  -4    2.24    0.08
   1   2  -4    2.19    0.10
  -1  -2   4    2.29    0.11
   0   2  -4  152.94    2.12
   0   2  -4  162.12    2.13
   0  -2   4  154.46    2.17
  -1   2  -4    6.01    0.17
   1  -2   4    5.95    0.19
   1  -2   4    6.14    0.15
  -2   2  -4    7.26    0.21
   2  -2   4    7.39    0.23
  -3   2  -4    0.07    0.03
   3  -2   4    0.03    0.03
   3   1  -4    3.44    0.14
  -3  -1   4    3.50    0.17
  -3  -1   4    3.34    0.14
   2   1  -4    3.55    0.13
  -2  -1   4    3.55    0.14
  -2  -1   4    3.35    0.13
   1   1  -4    2.09    0.09
   1   1  -4    2.08    0.07
  -1  -1   4    2.15    0.10
   0   1  -4   53.06    0.79
   0   1  -4   53.51    0.77
  -1   1  -4    3.75    0.13
   1  -1   4    3.88    0.14
  -2   1  -4   19.99    0.40
   2  -1   4   19.16    0.41
  -3   1  -4    9.02    0.25
   3  -1   4    9.42    0.29
   4   0  -4   33.97    0.63
  -4   0   4   33.98    0.73
   3   0  -4    3.03    0.13
  -3   0   4    3.15    0.12
  -3   0   4    2.96    0.15
   2   0  -4   77.47    1.11
  -2   0   4   75.31    1.11
  -2   0   4   76.68    1.17
   1   0  -4   15.90    0.29
   1   0  -4   15.92    0.28
  -1   0   4   15.80    0.30
  -1   0   4   15.90    0.33
   0   0  -4   23.94    0.41
   0   0   4   24.31    0.43
   0   0   4   24.27    0.43
  -1   0  -4    0.56    0.05
   1   0   4    0.41    0.06
  -2   0  -4   11.70    0.30
  -2   0  -4   11.35    0.27
   2   0   4   11.15    0.30
   4  -1  -4    0.08    0.04
  -4   1   4    0.09    0.05
   3  -1  -4    5.31    0.17
  -3   1   4    5.54    0.22
   2  -1  -4    0.23    0.03
   2  -1  -4    0.20    0.04
  -2   1   4    0.26    0.06
  -2   1   4    0.23    0.03
   1  -1  -4   32.41    0.52
   1  -1  -4   32.20    0.50
  -1   1   4   32.93    0.58
  -1   1   4   32.58    0.51
   0  -1  -4    7.04    0.18
   0   1   4    6.71    0.17
   0   1   4    6.77    0.20
  -1  -1  -4    9.05    0.23
   1   1   4    8.97    0.24
  -2  -1  -4   58.97    1.01
  -2  -1  -4   58.59    0.93
   2   1   4   59.46    0.97
   4  -2  -4    2.88    0.14
  -4   2   4    2.84    0.18
   3  -2  -4    5.66    0.18
  -3   2   4    5.44    0.22
   2  -2  -4   62.99    0.93
   2  -2  -4   63.97    0.94
  -2   2   4   64.51    1.05
   1  -2  -4    8.26    0.20
  -1   2   4    8.48    0.25
  -1   2   4    8.48    0.18
   0  -2  -4   60.99    0.91
   0   2   4   58.86    0.98
   0   2   4   58.88    0.89
  -1  -2  -4    8.29    0.22
   1   2   4    8.44    0.23
   1   2   4    8.33    0.27
  -2  -2  -4    2.74    0.13
  -2  -2  -4    2.75    0.17
   2   2   4    2.98    0.15
   4  -3  -4   11.57    0.31
  -4   3   4   11.52    0.38
   3  -3  -4    3.88    0.14
   3  -3  -4    3.87    0.13
  -3   3   4    3.80    0.19
   2  -3  -4   10.10    0.24
   2  -3  -4   10.25    0.23
  -2   3   4   10.28    0.31
   1  -3  -4    1.49    0.08
  -1   3   4    1.50    0.11
   0  -3  -4   74.57    1.12
   0   3   4   73.35    1.18
   0   3   4   75.28    1.23
  -1  -3  -4   -0.02    0.02
   1   3   4   -0.02    0.02
   1   3   4    0.02    0.03
   3  -4  -4    1.65    0.10
   3  -4  -4    1.73    0.10
  -3   4   4    1.53    0.13
   2  -4  -4   14.40    0.32
  -2   4   4   14.65    0.41
   1  -4  -4    4.40    0.16
  -1   4   4    4.33    0.21
   0  -4  -4    0.68    0.07
   0   4   4    0.64    0.09
   2  -5  -4    5.73    0.21
  -2   5   4    6.14    0.27
   1  -5  -4    7.80    0.24
  -1   5   4    8.26    0.31
   1   4  -5    0.53    0.07
  -1  -4   5    0.79    0.08
   0   4  -5    0.02    0.02
   0   4  -5    0.03    0.03
   0  -4   5    0.00    0.02
  -1   4  -5    1.87    0.11
  -1   4  -5    1.80    0.10
   1  -4   5    1.88    0.12
   2   3  -5    5.39    0.19
  -2  -3   5    5.44    0.21
   1   3  -5   12.09    0.29
  -1  -3   5   12.54    0.32
   0   3  -5    1.92    0.09
   0   3  -5    1.91    0.10
   0  -3   5    2.14    0.12
  -1   3  -5   36.02    0.62
   1  -3   5   35.36    0.66
  -2   3  -5   16.98    0.39
   2  -3   5   17.33    0.42
   3   2  -5    8.01    0.25
  -3  -2   5    8.12    0.26
   2   2  -5    6.27    0.20
  -2  -2   5    6.33    0.21
   1   2  -5    7.03    0.20
  -1  -2   5    7.19    0.22
   0   2  -5   15.07    0.31
   0   2  -5   15.05    0.30
   0  -2   5   14.89    0.35
  -1   2  -5   26.86    0.49
   1  -2   5   26.05    0.52
  -2   2  -5    1.18    0.09
   2  -2   5    1.10    0.09
   3   1  -5   22.91    0.46
  -3  -1   5   22.60    0.47
   2   1  -5    2.50    0.11
  -2  -1   5    2.56    0.12
   1   1  -5  117.37    1.61
   1   1  -5  113.92    1.58
  -1  -1   5  112.16    1.64
   0   1  -5    4.85    0.15
   0  -1   5    5.20    0.17
  -1   1  -5    8.12    0.22
   1  -1   5    7.94    0.24
  -2   1  -5    0.12    0.04
   2  -1   5    0.08    0.04
   3   0  -5    2.01    0.11
  -3   0   5    2.05    0.13
  -3   0   5    2.06    0.11
   2   0  -5    2.13    0.10
  -2   0   5    2.31    0.12
  -2   0   5    2.15    0.10
   1   0  -5   34.08    0.54
   1   0  -5   33.67    0.54
  -1   0   5   33.09    0.57
   0   0  -5    2.08    0.10
   0   0   5    1.90    0.10
  -1   0  -5   18.14    0.38
   1   0   5   18.15    0.40
  -2   0  -5   10.30    0.28
   2   0   5   10.65    0.31
   3  -1  -5   26.57    0.50
  -3   1   5   26.84    0.59
   2  -1  -5    8.17    0.19
   2  -1  -5    8.12    0.21
  -2   1   5    7.72    0.25
   1  -1  -5    9.84    0.23
  -1   1   5    9.92    0.28
  -1   1   5    9.88    0.23
   0  -1  -5    0.13    0.03
   0   1   5    0.05    0.03
   0   1   5    0.08    0.03
  -1  -1  -5   11.36    0.28
   1   1   5   11.46    0.30
   3  -2  -5    0.36    0.06
  -3   2   5    0.05    0.04
   2  -2  -5   13.21    0.28
   2  -2  -5   13.25    0.28
  -2   2   5   13.39    0.37
   1  -2  -5    2.11    0.10
  -1   2   5    1.98    0.13
   0  -2  -5    6.15    0.19
   0   2   5    6.20    0.23
   0   2   5    6.19    0.19
  -1  -2  -5   48.43    0.80
   1   2   5   46.75    0.81
   1   2   5   47.36    0.88
   3  -3  -5   22.76    0.44
  -3   3   5   22.05    0.54
   2  -3  -5    5.50    0.18
  -2   3   5    5.75    0.24
   1  -3  -5   35.16    0.62
  -1   3   5   35.12    0.72
   0  -3  -5    5.19    0.18
   0   3   5    5.10    0.23
   2  -4  -5    1.53    0.10
  -2   4   5    1.60    0.14
   1  -4  -5   40.61    0.72
  -1   4   5   42.19    0.85
   1   3  -6    0.01    0.02
  -1  -3   6   -0.04    0.02
   0   3  -6    1.37    0.09
   0   3  -6    1.39    0.09
   0  -3   6    1.36    0.10
   2   2  -6    7.15    0.23
  -2  -2   6    7.43    0.25
   1   2  -6    1.80    0.10
  -1  -2   6    1.74    0.11
   0   2  -6   33.96    0.59
   0  -2   6   34.85    0.66
  -1   2  -6   16.94    0.38
   1  -2   6   17.18    0.42
   2   1  -6    6.26    0.20
  -2  -1   6    6.01    0.21
   1   1  -6   10.52    0.25
   1   1  -6   10.35    0.24
  -1  -1   6   10.49    0.28
   0   1  -6   22.12    0.43
   0  -1   6   22.17    0.47
  -1   1  -6    0.89    0.08
   1  -1   6    0.98    0.09
   3   0  -6    2.15    0.12
  -3   0   6    2.09    0.21
   2   0  -6   65.41    1.00
  -2   0   6   63.13    1.00
   1   0  -6    3.40    0.13
  -1   0   6    3.56    0.15
   0   0  -6    6.82    0.21
   0   0   6    6.90    0.22
  -1   0  -6    0.15    0.04
   1   0   6    0.18    0.05
   3  -1  -6    1.49    0.10
  -3   1   6    1.54    0.13
   2  -1  -6   14.58    0.36
  -2   1   6   17.16    0.42
   1  -1  -6    0.57    0.07
  -1   1   6    0.40    0.06
   0  -1  -6   12.03    0.30
   0   1   6   11.97    0.30
   3  -2  -6    3.99    0.16
  -3   2   6    3.58    0.20
   2  -2  -6    3.05    0.13
  -2   2   6    3.09    0.17
   1  -2  -6    0.01    0.02
  -1   2   6    0.01    0.03
   0  -2  -6    8.74    0.26
   0   2   6    8.76    0.30
   2  -3  -6    0.30    0.06
  -2   3   6    0.23    0.07
   1  -3  -6    3.24    0.15
  -1   3   6    3.24    0.19
   0   0   0    0.00    0.00
;
_shelx_hkl_checksum              96433

_exptl_crystal_recrystallization_method 'Re-crystallisation from solvent'
_solvent_exptl_crystal_recrystallization_method water
